     Program PWSCF v.6.7MaX starts on 16May2022 at 21:52: 8

     R & G space division:  proc/nbgrp/npool/nimage =       4
     Reading input from Fe_mp-1271693.in

     Current dimensions of program PWSCF are:
     Max number of different atomic species (ntypx) = 10
     Max number of k-points (npk) =  40000
     Max angular momentum in pseudopotentials (lmaxx) =  3
     file Fe.pbe-spn-kjpaw_psl.0.2.1.UPF: wavefunction(s)  3D renormalized

     Subspace diagonalization in iterative solution of the eigenvalue problem:
     a serial algorithm will be used

     bravais-lattice index     =            0
     lattice parameter (alat)  =       4.6147  a.u.
     unit-cell volume          =     287.5286 (a.u.)^3
     number of atoms/cell      =            4
     number of atomic types    =            1
     number of electrons       =        64.00
     number of Kohn-Sham states=           38
     kinetic-energy cutoff     =      90.0000  Ry
     charge density cutoff     =    1080.0000  Ry
     scf convergence threshold =      1.0E-08
     mixing beta               =       0.2000
     number of iterations used =            8  plain     mixing
     energy convergence thresh.=      1.0E-05
     force convergence thresh. =      1.0E-04
     press convergence thresh. =      1.0E-01
     Exchange-correlation= SLA  PW   PBX  PBC
                           (   1   4   3   4   0   0   0)
     nstep                     =         1000

     celldm(1)=   4.614701  celldm(2)=   0.000000  celldm(3)=   0.000000
     celldm(4)=   0.000000  celldm(5)=   0.000000  celldm(6)=   0.000000

     crystal axes: (cart. coord. in units of alat)
               a(1) = (   1.000000   0.000000   0.000000 )
               a(2) = (  -0.003820   1.628420   0.000000 )
               a(3) = (  -0.001629  -0.000772   1.796735 )

     reciprocal axes: (cart. coord. in units 2 pi/alat)
               b(1) = (  1.000000  0.002346  0.000908 )
               b(2) = ( -0.000000  0.614092  0.000264 )
               b(3) = (  0.000000 -0.000000  0.556565 )

     PseudoPot. # 1 for Fe read from file:
     /opt/QEpot/SSSP_precision_pseudos/Fe.pbe-spn-kjpaw_psl.0.2.1.UPF
     MD5 check sum: e86618425769142926afa95317d90200
     Pseudo is Projector augmented-wave + core cor, Zval = 16.0
     Generated using "atomic" code by A. Dal Corso  v.5.0.99 svn rev. 10869
     Shape of augmentation charge: PSQ
     Using radial grid of 1191 points,  6 beta functions with:
                l(1) =   0
                l(2) =   0
                l(3) =   1
                l(4) =   1
                l(5) =   2
                l(6) =   2
     Q(r) pseudized with 0 coefficients

     atomic species   valence    mass     pseudopotential
        Fe            16.00    55.84500     Fe( 1.00)

     Starting magnetic structure
     atomic species   magnetization
        Fe           0.200

     No symmetry found

   Cartesian axes

     site n.     atom                  positions (alat units)
         1           Fe  tau(   1) = (   0.8717045   0.8140479   0.5100319  )
         2           Fe  tau(   2) = (   0.8704993   1.6276188   1.7359278  )
         3           Fe  tau(   3) = (   0.3709380   0.8136569   1.4083328  )
         4           Fe  tau(   4) = (   0.3713249   1.6280066   0.8375443  )

     number of k points=    63  Gaussian smearing, width (Ry)=  0.0100
                       cart. coord. in units 2pi/alat
        k(    1) = (   0.0000000   0.0000000   0.0000000), wk =   0.0080000
        k(    2) = (   0.0000000   0.0000000   0.1113130), wk =   0.0160000
        k(    3) = (   0.0000000   0.0000000   0.2226261), wk =   0.0160000
        k(    4) = (   0.0000000   0.1228184   0.0000528), wk =   0.0160000
        k(    5) = (   0.0000000   0.1228184   0.1113658), wk =   0.0160000
        k(    6) = (   0.0000000   0.1228184   0.2226789), wk =   0.0160000
        k(    7) = (   0.0000000   0.1228184  -0.2225733), wk =   0.0160000
        k(    8) = (   0.0000000   0.1228184  -0.1112602), wk =   0.0160000
        k(    9) = (   0.0000000   0.2456368   0.0001056), wk =   0.0160000
        k(   10) = (   0.0000000   0.2456368   0.1114186), wk =   0.0160000
        k(   11) = (   0.0000000   0.2456368   0.2227317), wk =   0.0160000
        k(   12) = (   0.0000000   0.2456368  -0.2225205), wk =   0.0160000
        k(   13) = (   0.0000000   0.2456368  -0.1112074), wk =   0.0160000
        k(   14) = (   0.2000000   0.0004691   0.0001816), wk =   0.0160000
        k(   15) = (   0.2000000   0.0004691   0.1114946), wk =   0.0160000
        k(   16) = (   0.2000000   0.0004691   0.2228076), wk =   0.0160000
        k(   17) = (   0.2000000   0.0004691  -0.2224445), wk =   0.0160000
        k(   18) = (   0.2000000   0.0004691  -0.1111315), wk =   0.0160000
        k(   19) = (   0.2000000   0.1232875   0.0002344), wk =   0.0160000
        k(   20) = (   0.2000000   0.1232875   0.1115474), wk =   0.0160000
        k(   21) = (   0.2000000   0.1232875   0.2228604), wk =   0.0160000
        k(   22) = (   0.2000000   0.1232875  -0.2223917), wk =   0.0160000
        k(   23) = (   0.2000000   0.1232875  -0.1110787), wk =   0.0160000
        k(   24) = (   0.2000000   0.2461060   0.0002872), wk =   0.0160000
        k(   25) = (   0.2000000   0.2461060   0.1116002), wk =   0.0160000
        k(   26) = (   0.2000000   0.2461060   0.2229132), wk =   0.0160000
        k(   27) = (   0.2000000   0.2461060  -0.2223389), wk =   0.0160000
        k(   28) = (   0.2000000   0.2461060  -0.1110259), wk =   0.0160000
        k(   29) = (   0.2000000  -0.2451677   0.0000760), wk =   0.0160000
        k(   30) = (   0.2000000  -0.2451677   0.1113890), wk =   0.0160000
        k(   31) = (   0.2000000  -0.2451677   0.2227020), wk =   0.0160000
        k(   32) = (   0.2000000  -0.2451677  -0.2225501), wk =   0.0160000
        k(   33) = (   0.2000000  -0.2451677  -0.1112371), wk =   0.0160000
        k(   34) = (   0.2000000  -0.1223493   0.0001288), wk =   0.0160000
        k(   35) = (   0.2000000  -0.1223493   0.1114418), wk =   0.0160000
        k(   36) = (   0.2000000  -0.1223493   0.2227548), wk =   0.0160000
        k(   37) = (   0.2000000  -0.1223493  -0.2224973), wk =   0.0160000
        k(   38) = (   0.2000000  -0.1223493  -0.1111843), wk =   0.0160000
        k(   39) = (   0.4000000   0.0009383   0.0003631), wk =   0.0160000
        k(   40) = (   0.4000000   0.0009383   0.1116761), wk =   0.0160000
        k(   41) = (   0.4000000   0.0009383   0.2229892), wk =   0.0160000
        k(   42) = (   0.4000000   0.0009383  -0.2222630), wk =   0.0160000
        k(   43) = (   0.4000000   0.0009383  -0.1109499), wk =   0.0160000
        k(   44) = (   0.4000000   0.1237567   0.0004159), wk =   0.0160000
        k(   45) = (   0.4000000   0.1237567   0.1117289), wk =   0.0160000
        k(   46) = (   0.4000000   0.1237567   0.2230420), wk =   0.0160000
        k(   47) = (   0.4000000   0.1237567  -0.2222102), wk =   0.0160000
        k(   48) = (   0.4000000   0.1237567  -0.1108971), wk =   0.0160000
        k(   49) = (   0.4000000   0.2465751   0.0004687), wk =   0.0160000
        k(   50) = (   0.4000000   0.2465751   0.1117817), wk =   0.0160000
        k(   51) = (   0.4000000   0.2465751   0.2230948), wk =   0.0160000
        k(   52) = (   0.4000000   0.2465751  -0.2221574), wk =   0.0160000
        k(   53) = (   0.4000000   0.2465751  -0.1108443), wk =   0.0160000
        k(   54) = (   0.4000000  -0.2446985   0.0002575), wk =   0.0160000
        k(   55) = (   0.4000000  -0.2446985   0.1115705), wk =   0.0160000
        k(   56) = (   0.4000000  -0.2446985   0.2228836), wk =   0.0160000
        k(   57) = (   0.4000000  -0.2446985  -0.2223686), wk =   0.0160000
        k(   58) = (   0.4000000  -0.2446985  -0.1110555), wk =   0.0160000
        k(   59) = (   0.4000000  -0.1218801   0.0003103), wk =   0.0160000
        k(   60) = (   0.4000000  -0.1218801   0.1116233), wk =   0.0160000
        k(   61) = (   0.4000000  -0.1218801   0.2229364), wk =   0.0160000
        k(   62) = (   0.4000000  -0.1218801  -0.2223158), wk =   0.0160000
        k(   63) = (   0.4000000  -0.1218801  -0.1110027), wk =   0.0160000

     Check: negative core charge=   -0.000011
     Generating pointlists ...
     new r_m :   0.4101 (alat units)  1.8926 (a.u.) for type    1

     Initial potential from superposition of free atoms

     starting charge   63.99825, renormalised to   64.00000
     Starting wfcs are   52 randomized atomic wfcs
     Checking if some PAW data can be deallocated...

     Self-consistent Calculation

     iteration #  1     ecut=    90.00 Ry     beta= 0.20
     Davidson diagonalization with overlap
     ethr =  1.00E-02,  avg # of iterations =  2.0

     Threshold (ethr) on eigenvalues was too large:
     Diagonalizing with lowered threshold

     Davidson diagonalization with overlap
     ethr =  1.19E-04,  avg # of iterations =  5.1

     total energy              =   -1316.93074782 Ry
     estimated scf accuracy    <       0.10267908 Ry

     total magnetization       =    10.14 Bohr mag/cell
     absolute magnetization    =    10.17 Bohr mag/cell

[...]

     negative rho (up, down):  0.000E+00 2.558E-05

[...]

     negative rho (up, down):  0.000E+00 1.646E-04

[...]

     Magnetic moment per site:
     atom:    1    charge:   14.4040    magn:   -0.0052    constr:    0.0000
     atom:    2    charge:   14.4040    magn:    0.0042    constr:    0.0000
     atom:    3    charge:   14.4040    magn:    0.0056    constr:    0.0000
     atom:    4    charge:   14.4041    magn:   -0.0051    constr:    0.0000

     End of self-consistent calculation

     Number of k-points >= 100: set verbosity='high' to print the bands.

     the Fermi energy is    19.7185 ev

!    total energy              =   -1317.05636075 Ry

     total all-electron energy =    -10182.242503 Ry
     estimated scf accuracy    <          9.4E-09 Ry
     smearing contrib. (-TS)   =      -0.00382634 Ry
     internal energy E=F+TS    =   -1317.05253441 Ry

     The total energy is F=E-TS. E is the sum of the following terms:
     one-electron contribution =    -414.18360603 Ry
     hartree contribution      =     251.85127549 Ry
     xc contribution           =    -138.87423306 Ry
     ewald contribution        =    -711.21551443 Ry
     one-center paw contrib.   =    -304.63045638 Ry

[...]

     convergence has been achieved in  96 iterations

     Forces acting on atoms (cartesian axes, Ry/au):

     atom    1 type  1   force =     0.00090962   -0.00007438    0.00894147
     atom    2 type  1   force =    -0.00087652    0.00007480   -0.00898669
     atom    3 type  1   force =     0.00087116   -0.00007199    0.00900094
     atom    4 type  1   force =    -0.00090426    0.00007157   -0.00895572

     Total force =     0.018031     Total SCF correction =     0.000038

     Computing stress (Cartesian axis) and pressure

          total   stress  (Ry/bohr**3)                   (kbar)     P=     -107.34
  -0.00035106   0.00002108   0.00000562          -51.64        3.10        0.83
   0.00002108  -0.00092200   0.00000435            3.10     -135.63        0.64
   0.00000562   0.00000435  -0.00091594            0.83        0.64     -134.74

     BFGS Geometry Optimization
     Energy error            =      0.0E+00
     Gradient error          =      9.0E-03
     Cell gradient error     =      9.2E-04

     number of scf cycles    =   1
     number of bfgs steps    =   0

     enthalpy new            =   -1317.0563607501 Ry

     new trust radius        =       0.0781911692 bohr
     new conv_thr            =       0.0000000100 Ry

     new unit-cell volume =    272.05997 a.u.^3 (    40.31513 Ang^3 )
     density =      9.20079 g/cm^3

CELL_PARAMETERS (angstrom)
   2.420562167   0.001287066   0.000343010
  -0.007150099   3.884928503   0.000430745
  -0.003328334  -0.001368117   4.287146039

ATOMIC_POSITIONS (angstrom)
Fe            2.1117153858        1.9432991695        1.2221135422
Fe            2.1093275011        3.8846398409        4.1381406077
Fe            0.8998663001        1.9419612677        3.3653871923
Fe            0.9007226795        3.8846826014        1.9943735160

     Writing output data file ./pwscf.save/
     NEW-OLD atomic charge density approx. for the potential

     Check: negative core charge=   -0.000008
     extrapolated charge   60.36122, renormalised to   64.00000
     Generating pointlists ...
     new r_m :   0.4016 (alat units)  1.8534 (a.u.) for type    1

[...]

     iteration #  1     ecut=    90.00 Ry     beta= 0.20
     Davidson diagonalization with overlap
     c_bands:  1 eigenvalues not converged
     ethr =  1.00E-06,  avg # of iterations = 17.4

[...]

     Energy error            =      5.1E-03
     Gradient error          =      9.4E-03
     Cell gradient error     =      4.9E-04

[...]

     enthalpy old            =   -1317.0563607501 Ry
     enthalpy new            =   -1317.0614738968 Ry

     CASE: enthalpy_new < enthalpy_old

[...]

     Check: negative core charge=   -0.000009
     extrapolated charge   64.88042, renormalised to   64.00000
     Generating pointlists ...

[...]

     Total force =     0.001273     Total SCF correction =     0.000059

[...]

     Total force =     0.000112     Total SCF correction =     0.000015
     SCF correction compared to forces is large: reduce conv_thr to get better values

[...]

     number of scf cycles    =   8
     number of bfgs steps    =   7

     enthalpy old            =   -1317.0633769588 Ry
     enthalpy new            =   -1317.0633772320 Ry

     CASE: enthalpy_new < enthalpy_old

     new trust radius        =       0.0001219375 bohr
     new conv_thr            =            1.0E-10 Ry

     new unit-cell volume =    276.12603 a.u.^3 (    40.91766 Ang^3 )
     density =      9.06531 g/cm^3

[...]

ATOMIC_POSITIONS (angstrom)
Fe            2.1486831084        1.9502822651        1.2420612393
Fe            2.1449724433        3.8976926906        4.0999936223
Fe            0.9182432720        1.9483743610        3.3770254514
Fe            0.9164698906        3.8967181147        1.9638989635

     Writing output data file ./pwscf.save/
     NEW-OLD atomic charge density approx. for the potential

     Check: negative core charge=   -0.000009
     extrapolated charge   64.00056, renormalised to   64.00000
     Generating pointlists ...

[...]

     Threshold (ethr) on eigenvalues was too large:
     Diagonalizing with lowered threshold

     Davidson diagonalization with overlap
     ethr =  2.46E-10,  avg # of iterations =  4.9

[...]

     Energy error            =      1.5E-08
     Gradient error          =      1.8E-05
     Cell gradient error     =      4.6E-07

     bfgs converged in   9 scf cycles and   8 bfgs steps
     (criteria: energy <  1.0E-05 Ry, force <  1.0E-04Ry/Bohr, cell <  1.0E-01kbar)

     End of BFGS Geometry Optimization

     Final enthalpy =   -1317.0633772468 Ry

     File ./pwscf.bfgs deleted, as requested
Begin final coordinates
     new unit-cell volume =    276.12603 a.u.^3 (    40.91766 Ang^3 )
     density =      9.06531 g/cm^3

CELL_PARAMETERS (angstrom)
   2.458940527   0.002882230   0.001131179
  -0.004694525   3.896065221   0.000832962
  -0.001958628  -0.000933522   4.271060978

ATOMIC_POSITIONS (angstrom)
Fe            2.1486831084        1.9502822651        1.2420612393
Fe            2.1449724433        3.8976926906        4.0999936223
Fe            0.9182432720        1.9483743610        3.3770254514
Fe            0.9164698906        3.8967181147        1.9638989635
End final coordinates

     Writing output data file ./pwscf.save/

     Final scf calculation at the relaxed structure.
     The G-vectors are recalculated for the final unit cell
     Results may differ from those at the preceding step.

     bravais-lattice index     =            0
     lattice parameter (alat)  =       4.6147  a.u.
     unit-cell volume          =     276.1260 (a.u.)^3
     number of atoms/cell      =            4
     number of atomic types    =            1
     number of electrons       =        64.00
     number of Kohn-Sham states=           38
     kinetic-energy cutoff     =      90.0000  Ry
     charge density cutoff     =    1080.0000  Ry
     scf convergence threshold =      1.0E-10
     mixing beta               =       0.2000
     number of iterations used =            8  plain     mixing
     press convergence thresh. =      1.0E-01
     Exchange-correlation= SLA  PW   PBX  PBC
                           (   1   4   3   4   0   0   0)

     celldm(1)=   4.614701  celldm(2)=   0.000000  celldm(3)=   0.000000
     celldm(4)=   0.000000  celldm(5)=   0.000000  celldm(6)=   0.000000

     crystal axes: (cart. coord. in units of alat)
               a(1) = (   1.006939   0.001180   0.000463 )
               a(2) = (  -0.001922   1.595444   0.000341 )
               a(3) = (  -0.000802  -0.000382   1.749005 )

     reciprocal axes: (cart. coord. in units 2 pi/alat)
               b(1) = (  0.993107  0.001197  0.000456 )
               b(2) = ( -0.000735  0.626784  0.000137 )
               b(3) = ( -0.000263 -0.000123  0.571753 )

     PseudoPot. # 1 for Fe read from file:
     /opt/QEpot/SSSP_precision_pseudos/Fe.pbe-spn-kjpaw_psl.0.2.1.UPF
     MD5 check sum: e86618425769142926afa95317d90200
     Pseudo is Projector augmented-wave + core cor, Zval = 16.0
     Generated using "atomic" code by A. Dal Corso  v.5.0.99 svn rev. 10869
     Shape of augmentation charge: PSQ
     Using radial grid of 1191 points,  6 beta functions with:
                l(1) =   0
                l(2) =   0
                l(3) =   1
                l(4) =   1
                l(5) =   2
                l(6) =   2
     Q(r) pseudized with 0 coefficients

     atomic species   valence    mass     pseudopotential
        Fe            16.00    55.84500     Fe( 1.00)

     Starting magnetic structure
     atomic species   magnetization
        Fe           0.000

     No symmetry found

   Cartesian axes

     site n.     atom                  positions (alat units)
         1           Fe  tau(   1) = (   0.8798886   0.7986432   0.5086258  )
         2           Fe  tau(   2) = (   0.8783691   1.5961104   1.6789529  )
         3           Fe  tau(   3) = (   0.3760219   0.7978619   1.3828965  )
         4           Fe  tau(   4) = (   0.3752957   1.5957113   0.8042193  )

     number of k points=    63  Gaussian smearing, width (Ry)=  0.0100
                       cart. coord. in units 2pi/alat
        k(    1) = (   0.0000000   0.0000000   0.0000000), wk =   0.0080000
        k(    2) = (  -0.0000526  -0.0000245   0.1143507), wk =   0.0160000
        k(    3) = (  -0.0001052  -0.0000490   0.2287014), wk =   0.0160000
        k(    4) = (  -0.0001469   0.1253568   0.0000273), wk =   0.0160000
        k(    5) = (  -0.0001995   0.1253323   0.1143780), wk =   0.0160000
        k(    6) = (  -0.0002521   0.1253078   0.2287287), wk =   0.0160000
        k(    7) = (  -0.0000418   0.1254058  -0.2286740), wk =   0.0160000
        k(    8) = (  -0.0000944   0.1253813  -0.1143234), wk =   0.0160000
        k(    9) = (  -0.0002939   0.2507135   0.0000547), wk =   0.0160000
        k(   10) = (  -0.0003465   0.2506890   0.1144053), wk =   0.0160000
        k(   11) = (  -0.0003990   0.2506645   0.2287560), wk =   0.0160000
        k(   12) = (  -0.0001887   0.2507626  -0.2286467), wk =   0.0160000
        k(   13) = (  -0.0002413   0.2507381  -0.1142960), wk =   0.0160000
        k(   14) = (   0.1986213   0.0002393   0.0000911), wk =   0.0160000
        k(   15) = (   0.1985688   0.0002148   0.1144418), wk =   0.0160000
        k(   16) = (   0.1985162   0.0001903   0.2287925), wk =   0.0160000
        k(   17) = (   0.1987265   0.0002883  -0.2286102), wk =   0.0160000
        k(   18) = (   0.1986739   0.0002638  -0.1142595), wk =   0.0160000
        k(   19) = (   0.1984744   0.1255961   0.0001185), wk =   0.0160000
        k(   20) = (   0.1984218   0.1255716   0.1144692), wk =   0.0160000
        k(   21) = (   0.1983692   0.1255471   0.2288198), wk =   0.0160000
        k(   22) = (   0.1985796   0.1256451  -0.2285829), wk =   0.0160000
        k(   23) = (   0.1985270   0.1256206  -0.1142322), wk =   0.0160000
        k(   24) = (   0.1983275   0.2509529   0.0001458), wk =   0.0160000
        k(   25) = (   0.1982749   0.2509283   0.1144965), wk =   0.0160000
        k(   26) = (   0.1982223   0.2509038   0.2288472), wk =   0.0160000
        k(   27) = (   0.1984326   0.2510019  -0.2285556), wk =   0.0160000
        k(   28) = (   0.1983800   0.2509774  -0.1142049), wk =   0.0160000
        k(   29) = (   0.1989152  -0.2504742   0.0000365), wk =   0.0160000
        k(   30) = (   0.1988627  -0.2504987   0.1143872), wk =   0.0160000
        k(   31) = (   0.1988101  -0.2505233   0.2287378), wk =   0.0160000
        k(   32) = (   0.1990204  -0.2504252  -0.2286649), wk =   0.0160000
        k(   33) = (   0.1989678  -0.2504497  -0.1143142), wk =   0.0160000
        k(   34) = (   0.1987683  -0.1251175   0.0000638), wk =   0.0160000
        k(   35) = (   0.1987157  -0.1251420   0.1144145), wk =   0.0160000
        k(   36) = (   0.1986631  -0.1251665   0.2287652), wk =   0.0160000
        k(   37) = (   0.1988734  -0.1250684  -0.2286376), wk =   0.0160000
        k(   38) = (   0.1988209  -0.1250930  -0.1142869), wk =   0.0160000
        k(   39) = (   0.3972427   0.0004786   0.0001823), wk =   0.0160000
        k(   40) = (   0.3971901   0.0004541   0.1145330), wk =   0.0160000
        k(   41) = (   0.3971375   0.0004296   0.2288836), wk =   0.0160000
        k(   42) = (   0.3973478   0.0005276  -0.2285191), wk =   0.0160000
        k(   43) = (   0.3972953   0.0005031  -0.1141684), wk =   0.0160000
        k(   44) = (   0.3970957   0.1258354   0.0002096), wk =   0.0160000
        k(   45) = (   0.3970432   0.1258109   0.1145603), wk =   0.0160000
        k(   46) = (   0.3969906   0.1257864   0.2289110), wk =   0.0160000
        k(   47) = (   0.3972009   0.1258844  -0.2284918), wk =   0.0160000
        k(   48) = (   0.3971483   0.1258599  -0.1141411), wk =   0.0160000
        k(   49) = (   0.3969488   0.2511922   0.0002369), wk =   0.0160000
        k(   50) = (   0.3968962   0.2511676   0.1145876), wk =   0.0160000
        k(   51) = (   0.3968436   0.2511431   0.2289383), wk =   0.0160000
        k(   52) = (   0.3970539   0.2512412  -0.2284644), wk =   0.0160000
        k(   53) = (   0.3970014   0.2512167  -0.1141137), wk =   0.0160000
        k(   54) = (   0.3975366  -0.2502349   0.0001276), wk =   0.0160000
        k(   55) = (   0.3974840  -0.2502594   0.1144783), wk =   0.0160000
        k(   56) = (   0.3974314  -0.2502840   0.2288290), wk =   0.0160000
        k(   57) = (   0.3976417  -0.2501859  -0.2285738), wk =   0.0160000
        k(   58) = (   0.3975892  -0.2502104  -0.1142231), wk =   0.0160000
        k(   59) = (   0.3973896  -0.1248782   0.0001549), wk =   0.0160000
        k(   60) = (   0.3973371  -0.1249027   0.1145056), wk =   0.0160000
        k(   61) = (   0.3972845  -0.1249272   0.2288563), wk =   0.0160000
        k(   62) = (   0.3974948  -0.1248291  -0.2285464), wk =   0.0160000
        k(   63) = (   0.3974422  -0.1248536  -0.1141957), wk =   0.0160000

     Check: negative core charge=   -0.000011
     Generating pointlists ...

     Initial potential from superposition of free atoms

     starting charge   63.99825, renormalised to   64.00000
     Starting wfcs are   52 randomized atomic wfcs
     Checking if some PAW data can be deallocated...

     Self-consistent Calculation

     iteration #  1     ecut=    90.00 Ry     beta= 0.20
     Davidson diagonalization with overlap
     c_bands:  1 eigenvalues not converged
     c_bands:  1 eigenvalues not converged
     ethr =  1.00E-06,  avg # of iterations = 14.6

[...]

     total energy              =   -1317.06319894 Ry
     estimated scf accuracy    <          7.6E-10 Ry

[...]

     iteration # 30     ecut=    90.00 Ry     beta= 0.20
     Davidson diagonalization with overlap
     ethr =  4.19E-13,  avg # of iterations =  3.5

     Magnetic moment per site:
     atom:    1    charge:   14.3239    magn:   -0.0001    constr:    0.0000
     atom:    2    charge:   14.3239    magn:    0.0002    constr:    0.0000
     atom:    3    charge:   14.3239    magn:   -0.0007    constr:    0.0000
     atom:    4    charge:   14.3239    magn:    0.0007    constr:    0.0000

     End of self-consistent calculation

     Number of k-points >= 100: set verbosity='high' to print the bands.

     the Fermi energy is    20.6992 ev

!    total energy              =   -1317.06319895 Ry

     total all-electron energy =    -10182.249341 Ry
     estimated scf accuracy    <          7.1E-11 Ry
     smearing contrib. (-TS)   =      -0.00381153 Ry
     internal energy E=F+TS    =   -1317.05938743 Ry

     The total energy is F=E-TS. E is the sum of the following terms:
     one-electron contribution =    -399.07445571 Ry
     hartree contribution      =     246.50795716 Ry
     xc contribution           =    -139.01257984 Ry
     ewald contribution        =    -720.84455502 Ry
     one-center paw contrib.   =    -304.63575402 Ry

     total magnetization       =     0.00 Bohr mag/cell
     absolute magnetization    =     0.00 Bohr mag/cell

     convergence has been achieved in  30 iterations

     Forces acting on atoms (cartesian axes, Ry/au):

     atom    1 type  1   force =    -0.00001421    0.00000083    0.00000258
     atom    2 type  1   force =     0.00001357   -0.00000065   -0.00000146
     atom    3 type  1   force =    -0.00001583    0.00000085   -0.00000187
     atom    4 type  1   force =     0.00001646   -0.00000103    0.00000075

     Total force =     0.000030     Total SCF correction =     0.000010
     SCF correction compared to forces is large: reduce conv_thr to get better values

     Computing stress (Cartesian axis) and pressure

          total   stress  (Ry/bohr**3)                   (kbar)     P=       -1.49
  -0.00000364   0.00000038   0.00000007           -0.53        0.06        0.01
   0.00000038  -0.00001275   0.00000005            0.06       -1.88        0.01
   0.00000007   0.00000005  -0.00001401            0.01        0.01       -2.06

     General routines

     Parallel routines

   This run was terminated on:  22:52:39  16May2022

   JOB DONE.
Note: The following floating-point exceptions are signalling: IEEE_INVALID_FLAG IEEE_UNDERFLOW_FLAG IEEE_DENORMAL
Note: The following floating-point exceptions are signalling: IEEE_UNDERFLOW_FLAG IEEE_DENORMAL
Note: The following floating-point exceptions are signalling: IEEE_UNDERFLOW_FLAG IEEE_DENORMAL
Note: The following floating-point exceptions are signalling: IEEE_INVALID_FLAG IEEE_UNDERFLOW_FLAG IEEE_DENORMAL