     Program PWSCF v.6.7MaX starts on 10Feb2022 at 22: 1:53

     R & G space division:  proc/nbgrp/npool/nimage =      24
     Reading input from /home/kevin/QE_CoCrFeMnNi/CoCrFeMnNi/Opt/binary/Opt-B1-MnNi/Mix/MD/600K_0.0001Gpa-B1-MnNi/600K_0.0001Gpa-B1-MnNi.in

     Current dimensions of program PWSCF are:
     Max number of different atomic species (ntypx) = 10
     Max number of k-points (npk) =  40000
     Max angular momentum in pseudopotentials (lmaxx) =  3

     File ./pwscf.md deleted, as requested

     Subspace diagonalization in iterative solution of the eigenvalue problem:
     a serial algorithm will be used

     Found symmetry operation: I + (  0.0000  0.5000 -0.5000)
     This is a supercell, fractional translations are disabled

     bravais-lattice index     =            0
     lattice parameter (alat)  =       8.7604  a.u.
     unit-cell volume          =     672.3117 (a.u.)^3
     number of atoms/cell      =            8
     number of atomic types    =            2
     number of electrons       =       132.00
     number of Kohn-Sham states=           79
     kinetic-energy cutoff     =      90.0000  Ry
     charge density cutoff     =    1080.0000  Ry
     scf convergence threshold =      1.0E-08
     mixing beta               =       0.2000
     number of iterations used =            4  plain     mixing
     energy convergence thresh.=      0.0E+00
     force convergence thresh. =      0.0E+00
     press convergence thresh. =      0.0E+00
     Exchange-correlation=  SLA  PW   PBX  PBC
                           (   1   4   3   4   0   0   0)
     nstep                     =          102

     celldm(1)=   8.760392  celldm(2)=   0.000000  celldm(3)=   0.000000
     celldm(4)=   0.000000  celldm(5)=   0.000000  celldm(6)=   0.000000

     crystal axes: (cart. coord. in units of alat)
               a(1) = (   1.000000   0.000000   0.000000 )
               a(2) = (   0.000000   1.000000   0.000000 )
               a(3) = (   0.000000   0.000000   1.000000 )

     reciprocal axes: (cart. coord. in units 2 pi/alat)
               b(1) = (  1.000000  0.000000  0.000000 )
               b(2) = (  0.000000  1.000000  0.000000 )
               b(3) = (  0.000000  0.000000  1.000000 )

     PseudoPot. # 1 for Ni read from file:
     /opt/QEpot/SSSP_efficiency_pseudos/ni_pbe_v1.4.uspp.F.UPF
     MD5 check sum: 1ee80287db30b12d2bc1f57a5b5d6409
     Pseudo is Ultrasoft + core correction, Zval = 18.0
     Generated by new atomic code, or converted to UPF format
     Using radial grid of  865 points,  6 beta functions with:
                l(1) =   0
                l(2) =   0
                l(3) =   1
                l(4) =   1
                l(5) =   2
                l(6) =   2
     Q(r) pseudized with 10 coefficients,  rinner =    0.980   0.980   0.980
                                                       0.980   0.980

     PseudoPot. # 2 for Mn read from file:
     /opt/QEpot/SSSP_efficiency_pseudos/mn_pbe_v1.5.uspp.F.UPF
     MD5 check sum: 82ef2b46521d7a7d9e736dc3972e4928
     Pseudo is Ultrasoft + core correction, Zval = 15.0
     Generated by new atomic code, or converted to UPF format
     Using radial grid of  859 points,  6 beta functions with:
                l(1) =   0
                l(2) =   0
                l(3) =   1
                l(4) =   1
                l(5) =   2
                l(6) =   2
     Q(r) pseudized with  8 coefficients,  rinner =    0.950   0.950   0.950
                                                       0.950   0.950

     atomic species   valence    mass     pseudopotential
        Ni            18.00    58.69300     Ni( 1.00)
        Mn            15.00    54.93800     Mn( 1.00)

      cell mass =  34.53968 AMU

     Starting magnetic structure
     atomic species   magnetization
        Ni           0.000
        Mn           0.000

     No symmetry found

   Cartesian axes

     site n.     atom                  positions (alat units)
         1           Ni  tau(   1) = (   0.0000000   0.5000000   0.0000000  )
         2           Mn  tau(   2) = (   0.5000000   0.0000000   0.5000000  )
         3           Ni  tau(   3) = (   0.0000000   0.0000000   0.5000000  )
         4           Mn  tau(   4) = (   0.5000000   0.5000000   0.0000000  )
         5           Ni  tau(   5) = (   0.5000000   0.0000000   0.0000000  )
         6           Mn  tau(   6) = (   0.0000000   0.5000000   0.5000000  )
         7           Ni  tau(   7) = (   0.5000000   0.5000000   0.5000000  )
         8           Mn  tau(   8) = (   0.0000000   0.0000000   0.0000000  )

     number of k points=    63  Gaussian smearing, width (Ry)=  0.0100
                       cart. coord. in units 2pi/alat
        k(    1) = (   0.0000000   0.0000000   0.0000000), wk =   0.0080000
        k(    2) = (   0.0000000   0.0000000   0.2000000), wk =   0.0160000
        k(    3) = (   0.0000000   0.0000000   0.4000000), wk =   0.0160000
        k(    4) = (   0.0000000   0.2000000   0.0000000), wk =   0.0160000
        k(    5) = (   0.0000000   0.2000000   0.2000000), wk =   0.0160000
        k(    6) = (   0.0000000   0.2000000   0.4000000), wk =   0.0160000
        k(    7) = (   0.0000000   0.2000000  -0.4000000), wk =   0.0160000
        k(    8) = (   0.0000000   0.2000000  -0.2000000), wk =   0.0160000
        k(    9) = (   0.0000000   0.4000000   0.0000000), wk =   0.0160000
        k(   10) = (   0.0000000   0.4000000   0.2000000), wk =   0.0160000
        k(   11) = (   0.0000000   0.4000000   0.4000000), wk =   0.0160000
        k(   12) = (   0.0000000   0.4000000  -0.4000000), wk =   0.0160000
        k(   13) = (   0.0000000   0.4000000  -0.2000000), wk =   0.0160000
        k(   14) = (   0.2000000   0.0000000   0.0000000), wk =   0.0160000
        k(   15) = (   0.2000000   0.0000000   0.2000000), wk =   0.0160000
        k(   16) = (   0.2000000   0.0000000   0.4000000), wk =   0.0160000
        k(   17) = (   0.2000000   0.0000000  -0.4000000), wk =   0.0160000
        k(   18) = (   0.2000000   0.0000000  -0.2000000), wk =   0.0160000
        k(   19) = (   0.2000000   0.2000000   0.0000000), wk =   0.0160000
        k(   20) = (   0.2000000   0.2000000   0.2000000), wk =   0.0160000
        k(   21) = (   0.2000000   0.2000000   0.4000000), wk =   0.0160000
        k(   22) = (   0.2000000   0.2000000  -0.4000000), wk =   0.0160000
        k(   23) = (   0.2000000   0.2000000  -0.2000000), wk =   0.0160000
        k(   24) = (   0.2000000   0.4000000   0.0000000), wk =   0.0160000
        k(   25) = (   0.2000000   0.4000000   0.2000000), wk =   0.0160000
        k(   26) = (   0.2000000   0.4000000   0.4000000), wk =   0.0160000
        k(   27) = (   0.2000000   0.4000000  -0.4000000), wk =   0.0160000
        k(   28) = (   0.2000000   0.4000000  -0.2000000), wk =   0.0160000
        k(   29) = (   0.2000000  -0.4000000   0.0000000), wk =   0.0160000
        k(   30) = (   0.2000000  -0.4000000   0.2000000), wk =   0.0160000
        k(   31) = (   0.2000000  -0.4000000   0.4000000), wk =   0.0160000
        k(   32) = (   0.2000000  -0.4000000  -0.4000000), wk =   0.0160000
        k(   33) = (   0.2000000  -0.4000000  -0.2000000), wk =   0.0160000
        k(   34) = (   0.2000000  -0.2000000   0.0000000), wk =   0.0160000
        k(   35) = (   0.2000000  -0.2000000   0.2000000), wk =   0.0160000
        k(   36) = (   0.2000000  -0.2000000   0.4000000), wk =   0.0160000
        k(   37) = (   0.2000000  -0.2000000  -0.4000000), wk =   0.0160000
        k(   38) = (   0.2000000  -0.2000000  -0.2000000), wk =   0.0160000
        k(   39) = (   0.4000000   0.0000000   0.0000000), wk =   0.0160000
        k(   40) = (   0.4000000   0.0000000   0.2000000), wk =   0.0160000
        k(   41) = (   0.4000000   0.0000000   0.4000000), wk =   0.0160000
        k(   42) = (   0.4000000   0.0000000  -0.4000000), wk =   0.0160000
        k(   43) = (   0.4000000   0.0000000  -0.2000000), wk =   0.0160000
        k(   44) = (   0.4000000   0.2000000   0.0000000), wk =   0.0160000
        k(   45) = (   0.4000000   0.2000000   0.2000000), wk =   0.0160000
        k(   46) = (   0.4000000   0.2000000   0.4000000), wk =   0.0160000
        k(   47) = (   0.4000000   0.2000000  -0.4000000), wk =   0.0160000
        k(   48) = (   0.4000000   0.2000000  -0.2000000), wk =   0.0160000
        k(   49) = (   0.4000000   0.4000000   0.0000000), wk =   0.0160000
        k(   50) = (   0.4000000   0.4000000   0.2000000), wk =   0.0160000
        k(   51) = (   0.4000000   0.4000000   0.4000000), wk =   0.0160000
        k(   52) = (   0.4000000   0.4000000  -0.4000000), wk =   0.0160000
        k(   53) = (   0.4000000   0.4000000  -0.2000000), wk =   0.0160000
        k(   54) = (   0.4000000  -0.4000000   0.0000000), wk =   0.0160000
        k(   55) = (   0.4000000  -0.4000000   0.2000000), wk =   0.0160000
        k(   56) = (   0.4000000  -0.4000000   0.4000000), wk =   0.0160000
        k(   57) = (   0.4000000  -0.4000000  -0.4000000), wk =   0.0160000
        k(   58) = (   0.4000000  -0.4000000  -0.2000000), wk =   0.0160000
        k(   59) = (   0.4000000  -0.2000000   0.0000000), wk =   0.0160000
        k(   60) = (   0.4000000  -0.2000000   0.2000000), wk =   0.0160000
        k(   61) = (   0.4000000  -0.2000000   0.4000000), wk =   0.0160000
        k(   62) = (   0.4000000  -0.2000000  -0.4000000), wk =   0.0160000
        k(   63) = (   0.4000000  -0.2000000  -0.2000000), wk =   0.0160000

     Check: negative core charge=   -0.000015
     Generating pointlists ...
     new r_m :   0.2063 (alat units)  1.8068 (a.u.) for type    1
     new r_m :   0.2063 (alat units)  1.8068 (a.u.) for type    2

     Initial potential from superposition of free atoms

     starting charge  121.99966, renormalised to  132.00000
     Starting wfcs are  104 randomized atomic wfcs

     Self-consistent Calculation

     iteration #  1     ecut=    90.00 Ry     beta= 0.20
     CG style diagonalization
     ethr =  1.00E-02,  avg # of iterations =  3.4

     total energy              =   -2188.45110460 Ry
     estimated scf accuracy    <     161.43462012 Ry

     total magnetization       =     0.00 Bohr mag/cell
     absolute magnetization    =     0.02 Bohr mag/cell

     iteration #  2     ecut=    90.00 Ry     beta= 0.20
     CG style diagonalization
     c_bands:  1 eigenvalues not converged
     ethr =  1.00E-02,  avg # of iterations =  5.0

[...]

     negative rho (up, down):  0.000E+00 6.356E-08

[...]

     Magnetic moment per site:
     atom:    1    charge:   16.4491    magn:   -0.1803    constr:    0.0000
     atom:    2    charge:   12.9337    magn:   -3.0673    constr:    0.0000
     atom:    3    charge:   16.4491    magn:   -0.1803    constr:    0.0000
     atom:    4    charge:   12.9337    magn:   -3.0673    constr:    0.0000
     atom:    5    charge:   16.4492    magn:   -0.1802    constr:    0.0000
     atom:    6    charge:   12.9337    magn:   -3.0673    constr:    0.0000
     atom:    7    charge:   16.4360    magn:   -0.5666    constr:    0.0000
     atom:    8    charge:   12.9087    magn:    3.2459    constr:    0.0000

     End of self-consistent calculation

     Number of k-points >= 100: set verbosity='high' to print the bands.

     the Fermi energy is    16.5225 ev

!    total energy              =   -2217.59279623 Ry
     estimated scf accuracy    <          1.9E-09 Ry
     smearing contrib. (-TS)   =      -0.00331619 Ry
     internal energy E=F+TS    =   -2217.58948004 Ry

[...]

     convergence has been achieved in 167 iterations

[...]

     Forces acting on atoms (cartesian axes, Ry/au):

     atom    1 type  1   force =    -0.00000001    0.00000000    0.00000000
     atom    2 type  2   force =     0.00000003    0.00000001   -0.00000007
     atom    3 type  1   force =     0.00000002    0.00000001   -0.00000002
     atom    4 type  2   force =     0.00000003   -0.00000002    0.00000006
     atom    5 type  1   force =     0.00000001    0.00000002   -0.00000001
     atom    6 type  2   force =    -0.00000009   -0.00000002    0.00000003
     atom    7 type  1   force =    -0.00000000   -0.00000001    0.00000001
     atom    8 type  2   force =     0.00000001    0.00000000   -0.00000000

     Total force =     0.000000     Total SCF correction =     0.000000
     SCF correction compared to forces is large: reduce conv_thr to get better values

     Computing stress (Cartesian axis) and pressure

     negative rho (up, down):  1.488E-06 1.313E-05
          total   stress  (Ry/bohr**3)                   (kbar)     P=      167.30
   0.00113730  -0.00000000   0.00000000          167.30       -0.00        0.00
  -0.00000000   0.00113732  -0.00000000           -0.00      167.31       -0.00
   0.00000000  -0.00000000   0.00113732            0.00       -0.00      167.30

     Entering Dynamics;  it =     1   time =  0.00000 pico-seconds

     File pwscf.e deleted, as requested

     File pwscf.eal deleted, as requested

     File pwscf.ave deleted, as requested

     File pwscf.p deleted, as requested

     File pwscf.avec deleted, as requested

     File pwscf.tv deleted, as requested
  new lattice vectors (alat unit) :
   1.000087885  -0.000001411  -0.000000109
  -0.000001411   1.000085641   0.000001286
  -0.000000109   0.000001286   1.000088469
  new unit-cell volume =    672.4879 (a.u.)^3
  new positions in cryst coord
Ni      -0.001335050   0.500237146  -0.000599502
Mn       0.500062378  -0.000065077   0.499708208
Ni       0.000289990  -0.000003116   0.501093378
Mn       0.500206144   0.499596992  -0.000680665
Ni       0.501041484  -0.000719394  -0.000761374
Mn      -0.000302015   0.500362761   0.500967365
Ni       0.500003576   0.500485364   0.500267498
Mn       0.000033493   0.000105325   0.000005091
  new positions in cart coord (alat unit)
Ni      -0.001335874   0.500279988  -0.000598911
Mn       0.500106272  -0.000065146   0.499752362
Ni       0.000289961  -0.000002472   0.501137709
Mn       0.500249399   0.499639071  -0.000680137
Ni       0.501085519  -0.000720164  -0.000761497
Mn      -0.000302802   0.500406257   0.501012329
Ni       0.500046758   0.500528164   0.500312345
Mn       0.000033496   0.000105334   0.000005092

     Ekin =     0.03990183 Ry    T =    0.0 K  Etot =    -2217.55288983
     new unit-cell volume =    672.48787 a.u.^3 (    99.65242 Ang^3 )
     density =      7.57387 g/cm^3

CELL_PARAMETERS (angstrom)
   4.636207419  -0.000006543  -0.000000505
  -0.000006543   4.636197016   0.000005963
  -0.000000505   0.000005963   4.636210126

ATOMIC_POSITIONS (angstrom)
Ni           -0.0061928425        2.3191979694       -0.0027764319
Mn            2.3183926542       -0.0003020039        2.3167520015
Ni            0.0013442024       -0.0000114596        2.3231741923
Mn            2.3190561658        2.3162268071       -0.0031529793
Ni            2.3229322504       -0.0033385372       -0.0035301472
Mn           -0.0014037300        2.3197833268        2.3225929559
Ni            2.3181167604        2.3203484635        2.3193479703
Mn            0.0001552804        0.0004883059        0.0000236055

     Writing output data file ./pwscf.save/
     NEW-OLD atomic charge density approx. for the potential

     Check: negative core charge=   -0.000015

     negative rho (up, down):  3.743E-07 1.307E-05
     extrapolated charge  132.03196, renormalised to  132.00000
     Generating pointlists ...

[...]

     Total force =     0.007235     Total SCF correction =     0.001001
     SCF correction compared to forces is large: reduce conv_thr to get better values

[...]

  new lattice vectors (alat unit) :
   1.000327601  -0.000005258  -0.000000405
  -0.000005258   1.000319216   0.000004794
  -0.000000405   0.000004794   1.000329788
  new unit-cell volume =    672.9685 (a.u.)^3
  new positions in cryst coord
Ni      -0.002843147   0.500505383  -0.001275212
Mn       0.500133127  -0.000137473   0.499376892
Ni       0.000617688  -0.000006104   0.502328943
Mn       0.500436541   0.499140144  -0.001448889
Ni       0.502218507  -0.001532917  -0.001622045
Mn      -0.000642959   0.500772455   0.502059161
Ni       0.500007083   0.501033606   0.500568361
Mn       0.000073152   0.000224908   0.000012786
  new positions in cart coord (alat unit)
Ni      -0.002846710   0.500665161  -0.001273232
Mn       0.500296770  -0.000137753   0.499541377
Ni       0.000617686  -0.000003701   0.502494605
Mn       0.500597860   0.499296840  -0.001447177
Ni       0.502383043  -0.001536055  -0.001622791
Mn      -0.000646007   0.500934720   0.502227135
Ni       0.500168049   0.501193314   0.500735642
Mn       0.000073174   0.000224979   0.000012791

[...]

     Total force =     0.014853     Total SCF correction =     0.000367

[...]

     negative rho (up, down):  0.000E+00 1.291E-05
     extrapolated charge  132.18243, renormalised to  132.00000
     Generating pointlists ...
     new r_m :   0.2037 (alat units)  1.7844 (a.u.) for type    1
     new r_m :   0.2037 (alat units)  1.7844 (a.u.) for type    2

[...]

     negative rho (up, down):  0.000E+00 1.120E-05
     extrapolated charge  132.62356, renormalised to  132.00000
     Generating pointlists ...
     new r_m :   0.1996 (alat units)  1.7482 (a.u.) for type    1
     new r_m :   0.1996 (alat units)  1.7482 (a.u.) for type    2

[...]

     iteration #  1     ecut=    90.00 Ry     beta= 0.20
     CG style diagonalization
     c_bands:  5 eigenvalues not converged
     c_bands:  5 eigenvalues not converged
     c_bands:  5 eigenvalues not converged
     c_bands:  5 eigenvalues not converged
     ethr =  1.00E-06,  avg # of iterations = 14.2

[...]

     Writing output data file ./pwscf.save/
     NEW-OLD atomic charge density approx. for the potential

     Check: negative core charge=   -0.000024

     negative rho (up, down):  5.302E-05 0.000E+00
     extrapolated charge  131.38570, renormalised to  132.00000
     Generating pointlists ...

     Self-consistent Calculation

[...]

     total energy              =   -2217.74800358 Ry
     estimated scf accuracy    <       0.00000003 Ry

[...]

     iteration # 28     ecut=    90.00 Ry     beta= 0.20
     CG style diagonalization
     ethr =  1.17E-11,  avg # of iterations =  3.0

[...]

     Magnetic moment per site:
     atom:    1    charge:   16.1650    magn:   -0.2475    constr:    0.0000
     atom:    2    charge:   12.6694    magn:   -3.2928    constr:    0.0000
     atom:    3    charge:   16.1646    magn:   -0.2006    constr:    0.0000
     atom:    4    charge:   12.6652    magn:   -3.2875    constr:    0.0000
     atom:    5    charge:   16.1355    magn:   -0.2473    constr:    0.0000
     atom:    6    charge:   12.6812    magn:   -3.3257    constr:    0.0000
     atom:    7    charge:   16.1692    magn:   -0.6132    constr:    0.0000
     atom:    8    charge:   12.6448    magn:    3.3164    constr:    0.0000

     End of self-consistent calculation

     Number of k-points >= 100: set verbosity='high' to print the bands.

     the Fermi energy is    14.2040 ev

!    total energy              =   -2217.74800358 Ry
     estimated scf accuracy    <          8.8E-09 Ry
     smearing contrib. (-TS)   =      -0.00397804 Ry
     internal energy E=F+TS    =   -2217.74402554 Ry

     total magnetization       =    -8.46 Bohr mag/cell
     absolute magnetization    =    16.29 Bohr mag/cell

     convergence has been achieved in  28 iterations

     negative rho (up, down):  4.589E-05 0.000E+00

     Forces acting on atoms (cartesian axes, Ry/au):

     atom    1 type  1   force =    -0.03388838    0.00938991   -0.01727376
     atom    2 type  2   force =     0.00651907    0.00661919   -0.00463344
     atom    3 type  1   force =    -0.00497256   -0.01487627    0.03208278
     atom    4 type  2   force =     0.00215914    0.00268260   -0.01581143
     atom    5 type  1   force =     0.01306696   -0.01765378   -0.02326053
     atom    6 type  2   force =     0.00562462   -0.00757801    0.00105989
     atom    7 type  1   force =     0.01239073    0.02766261    0.01161373
     atom    8 type  2   force =    -0.00089959   -0.00624625    0.01622277

     Total force =     0.075168     Total SCF correction =     0.000179

     Computing stress (Cartesian axis) and pressure

     negative rho (up, down):  4.589E-05 0.000E+00
          total   stress  (Ry/bohr**3)                   (kbar)     P=      -47.45
  -0.00034336   0.00004253   0.00008388          -50.51        6.26       12.34
   0.00004253  -0.00024341  -0.00006088            6.26      -35.81       -8.96
   0.00008388  -0.00006088  -0.00038097           12.34       -8.96      -56.04

     Entering Dynamics;  it =   102   time =  0.09772 pico-seconds

  new lattice vectors (alat unit) :
   1.036725895   0.011425900   0.005081257
   0.011425900   1.031608950   0.000188469
   0.005081257   0.000188469   1.044552263
  new unit-cell volume =    750.9595 (a.u.)^3
  new positions in cryst coord
Ni      -0.073224384   0.533969153   0.014509750
Mn       0.512093017   0.042899936   0.428869986
Ni       0.008612661   0.008488482   0.576719265
Mn       0.417091609   0.423484060  -0.008957054
Ni       0.575618465  -0.076094977  -0.068547002
Mn      -0.001404872   0.504153562   0.499653189
Ni       0.492669759   0.535534579   0.482564240
Mn       0.068292458   0.027435530   0.074829045
  new positions in cart coord (alat unit)
Ni      -0.069738809   0.550013437   0.014884757
Mn       0.533569460   0.050187910   0.450587276
Ni       0.011956416   0.008963896   0.602458776
Mn       0.437202845   0.441633906  -0.007156947
Ni       0.595540809  -0.071936220  -0.068690402
Mn       0.006842807   0.520167444   0.522001748
Ni       0.519334494   0.558182409   0.506667882
Mn       0.071494260   0.029097144   0.078515030

     Ekin =     0.06003065 Ry    T =  672.9 K  Etot =    -2217.68796780
     new unit-cell volume =    750.95950 a.u.^3 (   111.28072 Ang^3 )
     density =      6.78244 g/cm^3

CELL_PARAMETERS (angstrom)
   4.806053903   0.052968186   0.023555689
   0.052968186   4.782332772   0.000873705
   0.023555689   0.000873705   4.842335381

ATOMIC_POSITIONS (angstrom)
Ni           -0.3232951719        2.5497522929        0.0690027575
Mn            2.4735213005        0.2326611144        2.0888324936
Ni            0.0554275533        0.0415548268        2.7928783946
Mn            2.0267849492        2.0473264601       -0.0331781766
Ni            2.7608080843       -0.3334819271       -0.3184349661
Mn            0.0317218833        2.4113922359        2.4198957055
Ni            2.4075308462        2.5876220098        2.3488109681
Mn            0.3314330927        0.1348885395        0.3639799766

     Maximum number of iterations reached, stopping

     General routines

     Parallel routines

   This run was terminated on:   2: 3: 2  12Feb2022

   JOB DONE.
Note: The following floating-point exceptions are signalling: IEEE_UNDERFLOW_FLAG IEEE_DENORMAL
Note: The following floating-point exceptions are signalling: IEEE_UNDERFLOW_FLAG IEEE_DENORMAL
Note: The following floating-point exceptions are signalling: IEEE_UNDERFLOW_FLAG IEEE_DENORMAL
Note: The following floating-point exceptions are signalling: IEEE_UNDERFLOW_FLAG IEEE_DENORMAL
Note: The following floating-point exceptions are signalling: IEEE_UNDERFLOW_FLAG IEEE_DENORMAL
Note: The following floating-point exceptions are signalling: IEEE_UNDERFLOW_FLAG IEEE_DENORMAL
Note: The following floating-point exceptions are signalling: IEEE_UNDERFLOW_FLAG IEEE_DENORMAL
Note: The following floating-point exceptions are signalling: IEEE_UNDERFLOW_FLAG IEEE_DENORMAL
Note: The following floating-point exceptions are signalling: IEEE_UNDERFLOW_FLAG IEEE_DENORMAL
Note: The following floating-point exceptions are signalling: IEEE_UNDERFLOW_FLAG IEEE_DENORMAL
Note: The following floating-point exceptions are signalling: IEEE_UNDERFLOW_FLAG IEEE_DENORMAL
Note: The following floating-point exceptions are signalling: IEEE_UNDERFLOW_FLAG IEEE_DENORMAL
Note: The following floating-point exceptions are signalling: IEEE_UNDERFLOW_FLAG IEEE_DENORMAL
Note: The following floating-point exceptions are signalling: IEEE_UNDERFLOW_FLAG IEEE_DENORMAL
Note: The following floating-point exceptions are signalling: IEEE_UNDERFLOW_FLAG IEEE_DENORMAL
Note: The following floating-point exceptions are signalling: IEEE_UNDERFLOW_FLAG IEEE_DENORMAL
Note: The following floating-point exceptions are signalling: IEEE_UNDERFLOW_FLAG IEEE_DENORMAL
Note: The following floating-point exceptions are signalling: IEEE_UNDERFLOW_FLAG IEEE_DENORMAL
Note: The following floating-point exceptions are signalling: IEEE_UNDERFLOW_FLAG IEEE_DENORMAL
Note: The following floating-point exceptions are signalling: IEEE_UNDERFLOW_FLAG IEEE_DENORMAL
Note: The following floating-point exceptions are signalling: IEEE_UNDERFLOW_FLAG IEEE_DENORMAL
Note: The following floating-point exceptions are signalling: IEEE_UNDERFLOW_FLAG IEEE_DENORMAL
Note: The following floating-point exceptions are signalling: IEEE_UNDERFLOW_FLAG IEEE_DENORMAL
Note: The following floating-point exceptions are signalling: IEEE_UNDERFLOW_FLAG IEEE_DENORMAL