     Program PWSCF v.6.7MaX starts on  3Mar2022 at 16: 7:47

     R & G space division:  proc/nbgrp/npool/nimage =      24
     Reading input from /home/kevin/QE_CoCrFeMnNi/CoCrFeMnNi/Opt/binary/Opt-B1-CoNi/Mix/MD/600K_0.0001Gpa-B1-CoNi/600K_0.0001Gpa-B1-CoNi.in

     Current dimensions of program PWSCF are:
     Max number of different atomic species (ntypx) = 10
     Max number of k-points (npk) =  40000
     Max angular momentum in pseudopotentials (lmaxx) =  3

     File ./pwscf.update deleted, as requested

     File ./pwscf.md deleted, as requested

     Subspace diagonalization in iterative solution of the eigenvalue problem:
     a serial algorithm will be used

     Found symmetry operation: I + (  0.0000  0.5000 -0.5000)
     This is a supercell, fractional translations are disabled

     bravais-lattice index     =            0
     lattice parameter (alat)  =       8.7065  a.u.
     unit-cell volume          =     659.9881 (a.u.)^3
     number of atoms/cell      =            8
     number of atomic types    =            2
     number of electrons       =       140.00
     number of Kohn-Sham states=           84
     kinetic-energy cutoff     =      90.0000  Ry
     charge density cutoff     =    1080.0000  Ry
     scf convergence threshold =      1.0E-10
     mixing beta               =       0.2000
     number of iterations used =            8  plain     mixing
     energy convergence thresh.=      0.0E+00
     force convergence thresh. =      0.0E+00
     press convergence thresh. =      0.0E+00
     Exchange-correlation= SLA  PW   PBE  PBE
                           (   1   4   3   4   0   0   0)
     nstep                     =          102

     celldm(1)=   8.706535  celldm(2)=   0.000000  celldm(3)=   0.000000
     celldm(4)=   0.000000  celldm(5)=   0.000000  celldm(6)=   0.000000

     crystal axes: (cart. coord. in units of alat)
               a(1) = (   1.000000   0.000000   0.000000 )
               a(2) = (   0.000000   1.000000   0.000000 )
               a(3) = (   0.000000   0.000000   1.000000 )

     reciprocal axes: (cart. coord. in units 2 pi/alat)
               b(1) = (  1.000000  0.000000  0.000000 )
               b(2) = (  0.000000  1.000000  0.000000 )
               b(3) = (  0.000000  0.000000  1.000000 )

     PseudoPot. # 1 for Ni read from file:
     /opt/QEpot/SSSP_efficiency_pseudos/ni_pbe_v1.4.uspp.F.UPF
     MD5 check sum: 1ee80287db30b12d2bc1f57a5b5d6409
     Pseudo is Ultrasoft + core correction, Zval = 18.0
     Generated by new atomic code, or converted to UPF format
     Using radial grid of  865 points,  6 beta functions with:
                l(1) =   0
                l(2) =   0
                l(3) =   1
                l(4) =   1
                l(5) =   2
                l(6) =   2
     Q(r) pseudized with 10 coefficients,  rinner =    0.980   0.980   0.980
                                                       0.980   0.980

     PseudoPot. # 2 for Co read from file:
     /opt/QEpot/SSSP_efficiency_pseudos/Co_pbe_v1.2.uspp.F.UPF
     MD5 check sum: 5f91765df6ddd3222702df6e7b74a16d
     Pseudo is Ultrasoft + core correction, Zval = 17.0
     Generated by new atomic code, or converted to UPF format
     Using radial grid of  863 points,  6 beta functions with:
                l(1) =   0
                l(2) =   0
                l(3) =   1
                l(4) =   1
                l(5) =   2
                l(6) =   2
     Q(r) pseudized with  8 coefficients,  rinner =    1.200   1.200   1.200
                                                       1.200   1.200

     atomic species   valence    mass     pseudopotential
        Ni            18.00    58.69300     Ni( 1.00)
        Co            17.00    58.93300     Co( 1.00)

      cell mass =  35.75402 AMU

     Starting magnetic structure
     atomic species   magnetization
        Ni           0.200
        Co           0.200

     No symmetry found

   Cartesian axes

     site n.     atom                  positions (alat units)
         1           Ni  tau(   1) = (   0.0000000   0.5000000   0.0000000  )
         2           Co  tau(   2) = (   0.5000000   0.0000000   0.5000000  )
         3           Ni  tau(   3) = (   0.0000000   0.0000000   0.5000000  )
         4           Co  tau(   4) = (   0.5000000   0.5000000   0.0000000  )
         5           Ni  tau(   5) = (   0.5000000   0.0000000   0.0000000  )
         6           Co  tau(   6) = (   0.0000000   0.5000000   0.5000000  )
         7           Ni  tau(   7) = (   0.5000000   0.5000000   0.5000000  )
         8           Co  tau(   8) = (   0.0000000   0.0000000   0.0000000  )

     number of k points=    63  Gaussian smearing, width (Ry)=  0.0100
                       cart. coord. in units 2pi/alat
        k(    1) = (   0.0000000   0.0000000   0.0000000), wk =   0.0080000
        k(    2) = (   0.0000000   0.0000000   0.2000000), wk =   0.0160000
        k(    3) = (   0.0000000   0.0000000   0.4000000), wk =   0.0160000
        k(    4) = (   0.0000000   0.2000000   0.0000000), wk =   0.0160000
        k(    5) = (   0.0000000   0.2000000   0.2000000), wk =   0.0160000
        k(    6) = (   0.0000000   0.2000000   0.4000000), wk =   0.0160000
        k(    7) = (   0.0000000   0.2000000  -0.4000000), wk =   0.0160000
        k(    8) = (   0.0000000   0.2000000  -0.2000000), wk =   0.0160000
        k(    9) = (   0.0000000   0.4000000   0.0000000), wk =   0.0160000
        k(   10) = (   0.0000000   0.4000000   0.2000000), wk =   0.0160000
        k(   11) = (   0.0000000   0.4000000   0.4000000), wk =   0.0160000
        k(   12) = (   0.0000000   0.4000000  -0.4000000), wk =   0.0160000
        k(   13) = (   0.0000000   0.4000000  -0.2000000), wk =   0.0160000
        k(   14) = (   0.2000000   0.0000000   0.0000000), wk =   0.0160000
        k(   15) = (   0.2000000   0.0000000   0.2000000), wk =   0.0160000
        k(   16) = (   0.2000000   0.0000000   0.4000000), wk =   0.0160000
        k(   17) = (   0.2000000   0.0000000  -0.4000000), wk =   0.0160000
        k(   18) = (   0.2000000   0.0000000  -0.2000000), wk =   0.0160000
        k(   19) = (   0.2000000   0.2000000   0.0000000), wk =   0.0160000
        k(   20) = (   0.2000000   0.2000000   0.2000000), wk =   0.0160000
        k(   21) = (   0.2000000   0.2000000   0.4000000), wk =   0.0160000
        k(   22) = (   0.2000000   0.2000000  -0.4000000), wk =   0.0160000
        k(   23) = (   0.2000000   0.2000000  -0.2000000), wk =   0.0160000
        k(   24) = (   0.2000000   0.4000000   0.0000000), wk =   0.0160000
        k(   25) = (   0.2000000   0.4000000   0.2000000), wk =   0.0160000
        k(   26) = (   0.2000000   0.4000000   0.4000000), wk =   0.0160000
        k(   27) = (   0.2000000   0.4000000  -0.4000000), wk =   0.0160000
        k(   28) = (   0.2000000   0.4000000  -0.2000000), wk =   0.0160000
        k(   29) = (   0.2000000  -0.4000000   0.0000000), wk =   0.0160000
        k(   30) = (   0.2000000  -0.4000000   0.2000000), wk =   0.0160000
        k(   31) = (   0.2000000  -0.4000000   0.4000000), wk =   0.0160000
        k(   32) = (   0.2000000  -0.4000000  -0.4000000), wk =   0.0160000
        k(   33) = (   0.2000000  -0.4000000  -0.2000000), wk =   0.0160000
        k(   34) = (   0.2000000  -0.2000000   0.0000000), wk =   0.0160000
        k(   35) = (   0.2000000  -0.2000000   0.2000000), wk =   0.0160000
        k(   36) = (   0.2000000  -0.2000000   0.4000000), wk =   0.0160000
        k(   37) = (   0.2000000  -0.2000000  -0.4000000), wk =   0.0160000
        k(   38) = (   0.2000000  -0.2000000  -0.2000000), wk =   0.0160000
        k(   39) = (   0.4000000   0.0000000   0.0000000), wk =   0.0160000
        k(   40) = (   0.4000000   0.0000000   0.2000000), wk =   0.0160000
        k(   41) = (   0.4000000   0.0000000   0.4000000), wk =   0.0160000
        k(   42) = (   0.4000000   0.0000000  -0.4000000), wk =   0.0160000
        k(   43) = (   0.4000000   0.0000000  -0.2000000), wk =   0.0160000
        k(   44) = (   0.4000000   0.2000000   0.0000000), wk =   0.0160000
        k(   45) = (   0.4000000   0.2000000   0.2000000), wk =   0.0160000
        k(   46) = (   0.4000000   0.2000000   0.4000000), wk =   0.0160000
        k(   47) = (   0.4000000   0.2000000  -0.4000000), wk =   0.0160000
        k(   48) = (   0.4000000   0.2000000  -0.2000000), wk =   0.0160000
        k(   49) = (   0.4000000   0.4000000   0.0000000), wk =   0.0160000
        k(   50) = (   0.4000000   0.4000000   0.2000000), wk =   0.0160000
        k(   51) = (   0.4000000   0.4000000   0.4000000), wk =   0.0160000
        k(   52) = (   0.4000000   0.4000000  -0.4000000), wk =   0.0160000
        k(   53) = (   0.4000000   0.4000000  -0.2000000), wk =   0.0160000
        k(   54) = (   0.4000000  -0.4000000   0.0000000), wk =   0.0160000
        k(   55) = (   0.4000000  -0.4000000   0.2000000), wk =   0.0160000
        k(   56) = (   0.4000000  -0.4000000   0.4000000), wk =   0.0160000
        k(   57) = (   0.4000000  -0.4000000  -0.4000000), wk =   0.0160000
        k(   58) = (   0.4000000  -0.4000000  -0.2000000), wk =   0.0160000
        k(   59) = (   0.4000000  -0.2000000   0.0000000), wk =   0.0160000
        k(   60) = (   0.4000000  -0.2000000   0.2000000), wk =   0.0160000
        k(   61) = (   0.4000000  -0.2000000   0.4000000), wk =   0.0160000
        k(   62) = (   0.4000000  -0.2000000  -0.4000000), wk =   0.0160000
        k(   63) = (   0.4000000  -0.2000000  -0.2000000), wk =   0.0160000

     Check: negative core charge=   -0.000012
     Generating pointlists ...
     new r_m :   0.2063 (alat units)  1.7957 (a.u.) for type    1
     new r_m :   0.2063 (alat units)  1.7957 (a.u.) for type    2

     Initial potential from superposition of free atoms

     starting charge  127.99997, renormalised to  140.00000
     Starting wfcs are  104 randomized atomic wfcs

     Self-consistent Calculation

     iteration #  1     ecut=    90.00 Ry     beta= 0.20
     CG style diagonalization
     ethr =  1.00E-02,  avg # of iterations =  3.7

     total energy              =   -2548.71662500 Ry
     estimated scf accuracy    <     166.00461492 Ry

     total magnetization       =    13.40 Bohr mag/cell
     absolute magnetization    =    13.47 Bohr mag/cell

[...]

     iteration # 11     ecut=    90.00 Ry     beta= 0.20
     CG style diagonalization
     c_bands:  1 eigenvalues not converged
     c_bands:  1 eigenvalues not converged
     c_bands:  1 eigenvalues not converged
     c_bands:  1 eigenvalues not converged
     c_bands:  1 eigenvalues not converged
     c_bands:  1 eigenvalues not converged
     c_bands:  1 eigenvalues not converged
     c_bands:  1 eigenvalues not converged
     c_bands:  1 eigenvalues not converged
     c_bands:  1 eigenvalues not converged
     c_bands:  1 eigenvalues not converged
     c_bands:  1 eigenvalues not converged
     c_bands:  1 eigenvalues not converged
     c_bands:  1 eigenvalues not converged
     c_bands:  1 eigenvalues not converged
     c_bands:  1 eigenvalues not converged
     c_bands:  1 eigenvalues not converged
     c_bands:  1 eigenvalues not converged
     c_bands:  1 eigenvalues not converged
     c_bands:  1 eigenvalues not converged
     ethr =  8.06E-06,  avg # of iterations =  3.2

[...]

     Magnetic moment per site:
     atom:    1    charge:   16.3305    magn:    0.8879    constr:    0.0000
     atom:    2    charge:   15.1473    magn:    1.9456    constr:    0.0000
     atom:    3    charge:   16.3305    magn:    0.8879    constr:    0.0000
     atom:    4    charge:   15.1473    magn:    1.9456    constr:    0.0000
     atom:    5    charge:   16.3305    magn:    0.8879    constr:    0.0000
     atom:    6    charge:   15.1473    magn:    1.9456    constr:    0.0000
     atom:    7    charge:   16.3305    magn:    0.8879    constr:    0.0000
     atom:    8    charge:   15.1473    magn:    1.9456    constr:    0.0000

     End of self-consistent calculation

     Number of k-points >= 100: set verbosity='high' to print the bands.

     the Fermi energy is    15.9906 ev

!    total energy              =   -2566.62418972 Ry
     estimated scf accuracy    <          4.4E-11 Ry
     smearing contrib. (-TS)   =      -0.01231303 Ry
     internal energy E=F+TS    =   -2566.61187669 Ry

[...]

     convergence has been achieved in  50 iterations

     Forces acting on atoms (cartesian axes, Ry/au):

     atom    1 type  1   force =     0.00000002   -0.00000008    0.00000005
     atom    2 type  2   force =    -0.00000004    0.00000009   -0.00000001
     atom    3 type  1   force =     0.00000005    0.00000009   -0.00000013
     atom    4 type  2   force =    -0.00000002   -0.00000004    0.00000004
     atom    5 type  1   force =    -0.00000001    0.00000005    0.00000003
     atom    6 type  2   force =     0.00000005   -0.00000006   -0.00000003
     atom    7 type  1   force =    -0.00000007   -0.00000011   -0.00000006
     atom    8 type  2   force =     0.00000002    0.00000006    0.00000012

     Total force =     0.000000     Total SCF correction =     0.000001
     SCF correction compared to forces is large: reduce conv_thr to get better values

     Computing stress (Cartesian axis) and pressure

          total   stress  (Ry/bohr**3)                   (kbar)     P=       85.47
   0.00058100  -0.00000000  -0.00000000           85.47       -0.00       -0.00
  -0.00000000   0.00058100   0.00000000           -0.00       85.47        0.00
  -0.00000000   0.00000000   0.00058100           -0.00        0.00       85.47

     Entering Dynamics;  it =     1   time =  0.00000 pico-seconds

     File pwscf.e deleted, as requested

     File pwscf.eal deleted, as requested

     File pwscf.ave deleted, as requested

     File pwscf.p deleted, as requested

     File pwscf.avec deleted, as requested

     File pwscf.tv deleted, as requested
  new lattice vectors (alat unit) :
   1.000044807  -0.000001380  -0.000000107
  -0.000001380   1.000042611   0.000001258
  -0.000000107   0.000001258   1.000045377
  new unit-cell volume =    660.0757 (a.u.)^3
  new positions in cryst coord
Ni      -0.001343309   0.500238613  -0.000603210
Co       0.500060599  -0.000063222   0.499716529
Ni       0.000291784  -0.000003135   0.501100141
Co       0.500200265   0.499608485  -0.000661255
Ni       0.501047926  -0.000723845  -0.000766084
Co      -0.000293402   0.500352416   0.500939779
Ni       0.500003598   0.500488367   0.500269152
Co       0.000032538   0.000102321   0.000004946
  new positions in cart coord (alat unit)
Ni      -0.001344059   0.500259930  -0.000602608
Co       0.500082952  -0.000063286   0.499739151
Ni       0.000291744  -0.000002505   0.501122880
Co       0.500221988   0.499629082  -0.000660709
Ni       0.501070378  -0.000724568  -0.000766173
Co      -0.000294159   0.500374367   0.500963140
Ni       0.500025258   0.500509632   0.500292429
Co       0.000032539   0.000102326   0.000004947

     Ekin =     0.03990183 Ry    T =    0.0 K  Etot =    -2566.58428340
     new unit-cell volume =    660.07570 a.u.^3 (    97.81313 Ang^3 )
     density =      7.98758 g/cm^3

CELL_PARAMETERS (angstrom)
   4.607506440  -0.000006360  -0.000000491
  -0.000006360   4.607496322   0.000005796
  -0.000000491   0.000005796   4.607509066

ATOMIC_POSITIONS (angstrom)
Ni           -0.0061924842        2.3048475751       -0.0027763955
Co            2.3040321856       -0.0002915770        2.3024481922
Ni            0.0013441516       -0.0000115423        2.3088234435
Co            2.3046727660        2.3019410704       -0.0030440866
Ni            2.3085815529       -0.0033383018       -0.0035299878
Co           -0.0013552806        2.3053748214        2.3080874747
Ni            2.3037663690        2.3059980280        2.3049973102
Co            0.0001499185        0.0004714445        0.0000227907

     Writing output data file ./pwscf.save/
     NEW-OLD atomic charge density approx. for the potential

     Check: negative core charge=   -0.000012
     extrapolated charge  140.01700, renormalised to  140.00000
     Generating pointlists ...

[...]

     Total force =     0.005152     Total SCF correction =     0.000016

[...]

  new lattice vectors (alat unit) :
   1.000167145  -0.000005152  -0.000000396
  -0.000005152   1.000158939   0.000004696
  -0.000000396   0.000004696   1.000169267
  new unit-cell volume =    660.3150 (a.u.)^3
  new positions in cryst coord
Ni      -0.002864471   0.500508985  -0.001285207
Co       0.500129280  -0.000134113   0.499394232
Ni       0.000622410  -0.000006308   0.502346004
Co       0.500425366   0.499164029  -0.001409610
Ni       0.502234784  -0.001544115  -0.001633887
Co      -0.000625462   0.500751411   0.502003262
Ni       0.500007277   0.501041438   0.500573090
Co       0.000070815   0.000218673   0.000012116
  new positions in cart coord (alat unit)
Ni      -0.002867528   0.500588544  -0.001283073
Co       0.500212677  -0.000134366   0.499478565
Ni       0.000622315  -0.000003953   0.502431035
Co       0.500506438   0.499240781  -0.001407702
Ni       0.502318739  -0.001546956  -0.001634369
Co      -0.000628345   0.500833361   0.502090586
Ni       0.500088071   0.501120848   0.500659976
Co       0.000070826   0.000218707   0.000012119

[...]

     Check: negative core charge=   -0.000013
     extrapolated charge  140.09766, renormalised to  140.00000
     Generating pointlists ...
     new r_m :   0.2036 (alat units)  1.7726 (a.u.) for type    1
     new r_m :   0.2036 (alat units)  1.7726 (a.u.) for type    2

[...]

     Check: negative core charge=   -0.000014
     extrapolated charge  140.38950, renormalised to  140.00000
     Generating pointlists ...
     new r_m :   0.1968 (alat units)  1.7136 (a.u.) for type    1
     new r_m :   0.1968 (alat units)  1.7136 (a.u.) for type    2

[...]

     iteration #  1     ecut=    90.00 Ry     beta= 0.20
     CG style diagonalization
     c_bands:  1 eigenvalues not converged
     ethr =  1.00E-06,  avg # of iterations = 16.7

[...]

     Writing output data file ./pwscf.save/
     NEW-OLD atomic charge density approx. for the potential

     Check: negative core charge=   -0.000012
     extrapolated charge  139.47918, renormalised to  140.00000
     Generating pointlists ...

     Self-consistent Calculation

[...]

     total energy              =   -2566.79797514 Ry
     estimated scf accuracy    <          2.7E-10 Ry

[...]

     iteration # 35     ecut=    90.00 Ry     beta= 0.20
     CG style diagonalization
     ethr =  1.95E-13,  avg # of iterations =  3.0

     Magnetic moment per site:
     atom:    1    charge:   16.0499    magn:    0.7879    constr:    0.0000
     atom:    2    charge:   14.8741    magn:    1.8752    constr:    0.0000
     atom:    3    charge:   16.0527    magn:    0.8055    constr:    0.0000
     atom:    4    charge:   14.8731    magn:    1.8557    constr:    0.0000
     atom:    5    charge:   16.0292    magn:    0.7284    constr:    0.0000
     atom:    6    charge:   14.8846    magn:    1.9325    constr:    0.0000
     atom:    7    charge:   16.0566    magn:    0.8324    constr:    0.0000
     atom:    8    charge:   14.8800    magn:    1.8426    constr:    0.0000

     End of self-consistent calculation

     Number of k-points >= 100: set verbosity='high' to print the bands.

     the Fermi energy is    15.9702 ev

!    total energy              =   -2566.79797514 Ry
     estimated scf accuracy    <          9.9E-11 Ry
     smearing contrib. (-TS)   =      -0.00859076 Ry
     internal energy E=F+TS    =   -2566.78938438 Ry

     total magnetization       =    10.37 Bohr mag/cell
     absolute magnetization    =    11.30 Bohr mag/cell

     convergence has been achieved in  35 iterations

     Forces acting on atoms (cartesian axes, Ry/au):

     atom    1 type  1   force =    -0.02208722    0.00469370    0.00069468
     atom    2 type  2   force =     0.01468227    0.02241849   -0.02260473
     atom    3 type  1   force =    -0.00623953   -0.00880802    0.03983559
     atom    4 type  2   force =    -0.01109258   -0.00573973   -0.00738573
     atom    5 type  1   force =     0.00166026   -0.01369282   -0.03040966
     atom    6 type  2   force =     0.00921441   -0.01342034   -0.00924061
     atom    7 type  1   force =     0.01119441    0.02854623    0.00425043
     atom    8 type  2   force =     0.00266798   -0.01399752    0.02486002

     Total force =     0.083055     Total SCF correction =     0.000013

     Computing stress (Cartesian axis) and pressure

          total   stress  (Ry/bohr**3)                   (kbar)     P=       -4.72
  -0.00010701  -0.00002561   0.00003048          -15.74       -3.77        4.48
  -0.00002561   0.00015296  -0.00002013           -3.77       22.50       -2.96
   0.00003048  -0.00002013  -0.00014217            4.48       -2.96      -20.91

     Entering Dynamics;  it =   102   time =  0.09772 pico-seconds

  new lattice vectors (alat unit) :
   0.999437702   0.002759093   0.004006068
   0.002759093   0.988606481   0.005948231
   0.004006068   0.005948231   1.004862624
  new unit-cell volume =    655.2337 (a.u.)^3
  new positions in cryst coord
Ni      -0.085145673   0.529295244   0.015195777
Co       0.506594676   0.043647615   0.415328649
Ni       0.017890280   0.011758957   0.583763692
Co       0.410610187   0.409695986  -0.017161440
Ni       0.581540844  -0.081359302  -0.077379009
Co      -0.005333793   0.511150421   0.512859255
Ni       0.493717179   0.541160697   0.481720327
Co       0.080158889   0.034653867   0.085686191
  new positions in cart coord (alat unit)
Ni      -0.083576545   0.523120171   0.018076939
Co       0.508094082   0.047018528   0.419637315
Ni       0.020251261   0.015146704   0.586743930
Co       0.411440941   0.406058938  -0.013162990
Ni       0.580679382  -0.079288076  -0.075909525
Co      -0.001865932   0.508362508   0.518372170
Ni       0.496862481   0.539222568   0.489259565
Co       0.080552693   0.034989884   0.086630102

     Ekin =     0.06377257 Ry    T =  711.4 K  Etot =    -2566.73419810
     new unit-cell volume =    655.23374 a.u.^3 (    97.09562 Ang^3 )
     density =      8.04661 g/cm^3

CELL_PARAMETERS (angstrom)
   4.604709323   0.012711971   0.018457159
   0.012711971   4.554806639   0.027405285
   0.018457159   0.027405285   4.629703567

ATOMIC_POSITIONS (angstrom)
Ni           -0.3850622157        2.4101715652        0.0832858822
Co            2.3409418626        0.2166284621        1.9333950006
Ni            0.0933036360        0.0697854072        2.7033053066
Co            1.8956318486        1.8708353467       -0.0606458459
Ni            2.6753641148       -0.3653039530       -0.3497379555
Co           -0.0085969103        2.3421785824        2.3882961001
Ni            2.2891945071        2.4843601378        2.2541655953
Co            0.3711304243        0.1612088942        0.3991308695

     Maximum number of iterations reached, stopping

     General routines

     Parallel routines

   This run was terminated on:   6:22:15   5Mar2022

   JOB DONE.
Note: The following floating-point exceptions are signalling: IEEE_UNDERFLOW_FLAG IEEE_DENORMAL
Note: The following floating-point exceptions are signalling: IEEE_UNDERFLOW_FLAG IEEE_DENORMAL
Note: The following floating-point exceptions are signalling: IEEE_UNDERFLOW_FLAG IEEE_DENORMAL
Note: The following floating-point exceptions are signalling: IEEE_UNDERFLOW_FLAG IEEE_DENORMAL
Note: The following floating-point exceptions are signalling: IEEE_UNDERFLOW_FLAG IEEE_DENORMAL
Note: The following floating-point exceptions are signalling: IEEE_UNDERFLOW_FLAG IEEE_DENORMAL
Note: The following floating-point exceptions are signalling: IEEE_UNDERFLOW_FLAG IEEE_DENORMAL
Note: The following floating-point exceptions are signalling: IEEE_UNDERFLOW_FLAG IEEE_DENORMAL
Note: The following floating-point exceptions are signalling: IEEE_UNDERFLOW_FLAG IEEE_DENORMAL
Note: The following floating-point exceptions are signalling: IEEE_UNDERFLOW_FLAG IEEE_DENORMAL
Note: The following floating-point exceptions are signalling: IEEE_UNDERFLOW_FLAG IEEE_DENORMAL
Note: The following floating-point exceptions are signalling: IEEE_UNDERFLOW_FLAG IEEE_DENORMAL
Note: The following floating-point exceptions are signalling: IEEE_UNDERFLOW_FLAG IEEE_DENORMAL
Note: The following floating-point exceptions are signalling: IEEE_UNDERFLOW_FLAG IEEE_DENORMAL
Note: The following floating-point exceptions are signalling: IEEE_UNDERFLOW_FLAG IEEE_DENORMAL
Note: The following floating-point exceptions are signalling: IEEE_UNDERFLOW_FLAG IEEE_DENORMAL
Note: The following floating-point exceptions are signalling: IEEE_UNDERFLOW_FLAG IEEE_DENORMAL
Note: The following floating-point exceptions are signalling: IEEE_UNDERFLOW_FLAG IEEE_DENORMAL
Note: The following floating-point exceptions are signalling: IEEE_UNDERFLOW_FLAG IEEE_DENORMAL
Note: The following floating-point exceptions are signalling: IEEE_UNDERFLOW_FLAG IEEE_DENORMAL
Note: The following floating-point exceptions are signalling: IEEE_UNDERFLOW_FLAG IEEE_DENORMAL
Note: The following floating-point exceptions are signalling: IEEE_UNDERFLOW_FLAG IEEE_DENORMAL
Note: The following floating-point exceptions are signalling: IEEE_UNDERFLOW_FLAG IEEE_DENORMAL
Note: The following floating-point exceptions are signalling: IEEE_UNDERFLOW_FLAG IEEE_DENORMAL