     Program PWSCF v.6.7MaX starts on 16May2022 at 22:55: 9

     R & G space division:  proc/nbgrp/npool/nimage =       4
     Reading input from Fe_mp-136.in

     Current dimensions of program PWSCF are:
     Max number of different atomic species (ntypx) = 10
     Max number of k-points (npk) =  40000
     Max angular momentum in pseudopotentials (lmaxx) =  3
     file Fe.pbe-spn-kjpaw_psl.0.2.1.UPF: wavefunction(s)  3D renormalized

     Subspace diagonalization in iterative solution of the eigenvalue problem:
     a serial algorithm will be used

     bravais-lattice index     =            0
     lattice parameter (alat)  =       4.6596  a.u.
     unit-cell volume          =     138.5841 (a.u.)^3
     number of atoms/cell      =            2
     number of atomic types    =            1
     number of electrons       =        32.00
     number of Kohn-Sham states=           20
     kinetic-energy cutoff     =      90.0000  Ry
     charge density cutoff     =    1080.0000  Ry
     scf convergence threshold =      1.0E-08
     mixing beta               =       0.2000
     number of iterations used =            8  plain     mixing
     energy convergence thresh.=      1.0E-05
     force convergence thresh. =      1.0E-04
     press convergence thresh. =      1.0E-01
     Exchange-correlation= SLA  PW   PBX  PBC
                           (   1   4   3   4   0   0   0)
     nstep                     =         1000

     celldm(1)=   4.659603  celldm(2)=   0.000000  celldm(3)=   0.000000
     celldm(4)=   0.000000  celldm(5)=   0.000000  celldm(6)=   0.000000

     crystal axes: (cart. coord. in units of alat)
               a(1) = (   1.000000   0.000000   0.000000 )
               a(2) = (  -0.500000   0.866025   0.000000 )
               a(3) = (   0.000000   0.000000   1.581743 )

     reciprocal axes: (cart. coord. in units 2 pi/alat)
               b(1) = (  1.000000  0.577350 -0.000000 )
               b(2) = (  0.000000  1.154700  0.000000 )
               b(3) = (  0.000000 -0.000000  0.632214 )

     PseudoPot. # 1 for Fe read from file:
     /opt/QEpot/SSSP_precision_pseudos/Fe.pbe-spn-kjpaw_psl.0.2.1.UPF
     MD5 check sum: e86618425769142926afa95317d90200
     Pseudo is Projector augmented-wave + core cor, Zval = 16.0
     Generated using "atomic" code by A. Dal Corso  v.5.0.99 svn rev. 10869
     Shape of augmentation charge: PSQ
     Using radial grid of 1191 points,  6 beta functions with:
                l(1) =   0
                l(2) =   0
                l(3) =   1
                l(4) =   1
                l(5) =   2
                l(6) =   2
     Q(r) pseudized with 0 coefficients

     atomic species   valence    mass     pseudopotential
        Fe            16.00    55.84500     Fe( 1.00)

     Starting magnetic structure
     atomic species   magnetization
        Fe           0.200

     No symmetry found

   Cartesian axes

     site n.     atom                  positions (alat units)
         1           Fe  tau(   1) = (   0.5000005   0.2886749   1.1863073  )
         2           Fe  tau(   2) = (  -0.0000004   0.5773506   0.3954358  )

     number of k points=    63  Gaussian smearing, width (Ry)=  0.0100
                       cart. coord. in units 2pi/alat
        k(    1) = (   0.0000000   0.0000000   0.0000000), wk =   0.0080000
        k(    2) = (   0.0000000   0.0000000   0.1264428), wk =   0.0160000
        k(    3) = (   0.0000000   0.0000000   0.2528856), wk =   0.0160000
        k(    4) = (   0.0000000   0.2309401   0.0000000), wk =   0.0160000
        k(    5) = (   0.0000000   0.2309401   0.1264428), wk =   0.0160000
        k(    6) = (   0.0000000   0.2309401   0.2528856), wk =   0.0160000
        k(    7) = (   0.0000000   0.2309401  -0.2528856), wk =   0.0160000
        k(    8) = (   0.0000000   0.2309401  -0.1264428), wk =   0.0160000
        k(    9) = (   0.0000000   0.4618802   0.0000000), wk =   0.0160000
        k(   10) = (   0.0000000   0.4618802   0.1264428), wk =   0.0160000
        k(   11) = (   0.0000000   0.4618802   0.2528856), wk =   0.0160000
        k(   12) = (   0.0000000   0.4618802  -0.2528856), wk =   0.0160000
        k(   13) = (   0.0000000   0.4618802  -0.1264428), wk =   0.0160000
        k(   14) = (   0.2000000   0.1154700   0.0000000), wk =   0.0160000
        k(   15) = (   0.2000000   0.1154700   0.1264428), wk =   0.0160000
        k(   16) = (   0.2000000   0.1154700   0.2528856), wk =   0.0160000
        k(   17) = (   0.2000000   0.1154700  -0.2528856), wk =   0.0160000
        k(   18) = (   0.2000000   0.1154700  -0.1264428), wk =   0.0160000
        k(   19) = (   0.2000000   0.3464101   0.0000000), wk =   0.0160000
        k(   20) = (   0.2000000   0.3464101   0.1264428), wk =   0.0160000
        k(   21) = (   0.2000000   0.3464101   0.2528856), wk =   0.0160000
        k(   22) = (   0.2000000   0.3464101  -0.2528856), wk =   0.0160000
        k(   23) = (   0.2000000   0.3464101  -0.1264428), wk =   0.0160000
        k(   24) = (   0.2000000   0.5773502   0.0000000), wk =   0.0160000
        k(   25) = (   0.2000000   0.5773502   0.1264428), wk =   0.0160000
        k(   26) = (   0.2000000   0.5773502   0.2528856), wk =   0.0160000
        k(   27) = (   0.2000000   0.5773502  -0.2528856), wk =   0.0160000
        k(   28) = (   0.2000000   0.5773502  -0.1264428), wk =   0.0160000
        k(   29) = (   0.2000000  -0.3464102   0.0000000), wk =   0.0160000
        k(   30) = (   0.2000000  -0.3464102   0.1264428), wk =   0.0160000
        k(   31) = (   0.2000000  -0.3464102   0.2528856), wk =   0.0160000
        k(   32) = (   0.2000000  -0.3464102  -0.2528856), wk =   0.0160000
        k(   33) = (   0.2000000  -0.3464102  -0.1264428), wk =   0.0160000
        k(   34) = (   0.2000000  -0.1154701   0.0000000), wk =   0.0160000
        k(   35) = (   0.2000000  -0.1154701   0.1264428), wk =   0.0160000
        k(   36) = (   0.2000000  -0.1154701   0.2528856), wk =   0.0160000
        k(   37) = (   0.2000000  -0.1154701  -0.2528856), wk =   0.0160000
        k(   38) = (   0.2000000  -0.1154701  -0.1264428), wk =   0.0160000
        k(   39) = (   0.4000000   0.2309400   0.0000000), wk =   0.0160000
        k(   40) = (   0.4000000   0.2309400   0.1264428), wk =   0.0160000
        k(   41) = (   0.4000000   0.2309400   0.2528856), wk =   0.0160000
        k(   42) = (   0.4000000   0.2309400  -0.2528856), wk =   0.0160000
        k(   43) = (   0.4000000   0.2309400  -0.1264428), wk =   0.0160000
        k(   44) = (   0.4000000   0.4618801   0.0000000), wk =   0.0160000
        k(   45) = (   0.4000000   0.4618801   0.1264428), wk =   0.0160000
        k(   46) = (   0.4000000   0.4618801   0.2528856), wk =   0.0160000
        k(   47) = (   0.4000000   0.4618801  -0.2528856), wk =   0.0160000
        k(   48) = (   0.4000000   0.4618801  -0.1264428), wk =   0.0160000
        k(   49) = (   0.4000000   0.6928202   0.0000000), wk =   0.0160000
        k(   50) = (   0.4000000   0.6928202   0.1264428), wk =   0.0160000
        k(   51) = (   0.4000000   0.6928202   0.2528856), wk =   0.0160000
        k(   52) = (   0.4000000   0.6928202  -0.2528856), wk =   0.0160000
        k(   53) = (   0.4000000   0.6928202  -0.1264428), wk =   0.0160000
        k(   54) = (   0.4000000  -0.2309401   0.0000000), wk =   0.0160000
        k(   55) = (   0.4000000  -0.2309401   0.1264428), wk =   0.0160000
        k(   56) = (   0.4000000  -0.2309401   0.2528856), wk =   0.0160000
        k(   57) = (   0.4000000  -0.2309401  -0.2528856), wk =   0.0160000
        k(   58) = (   0.4000000  -0.2309401  -0.1264428), wk =   0.0160000
        k(   59) = (   0.4000000  -0.0000001   0.0000000), wk =   0.0160000
        k(   60) = (   0.4000000  -0.0000001   0.1264428), wk =   0.0160000
        k(   61) = (   0.4000000  -0.0000001   0.2528856), wk =   0.0160000
        k(   62) = (   0.4000000  -0.0000001  -0.2528856), wk =   0.0160000
        k(   63) = (   0.4000000  -0.0000001  -0.1264428), wk =   0.0160000

     Check: negative core charge=   -0.000011
     Generating pointlists ...
     new r_m :   0.4039 (alat units)  1.8821 (a.u.) for type    1

     Initial potential from superposition of free atoms

     starting charge   31.99912, renormalised to   32.00000
     Starting wfcs are   26 randomized atomic wfcs
     Checking if some PAW data can be deallocated...

     Self-consistent Calculation

     iteration #  1     ecut=    90.00 Ry     beta= 0.20
     Davidson diagonalization with overlap
     ethr =  1.00E-02,  avg # of iterations =  2.0

     Threshold (ethr) on eigenvalues was too large:
     Diagonalizing with lowered threshold

     Davidson diagonalization with overlap
     ethr =  1.60E-04,  avg # of iterations =  4.4

     total energy              =    -658.44801733 Ry
     estimated scf accuracy    <       0.05672335 Ry

     total magnetization       =     5.00 Bohr mag/cell
     absolute magnetization    =     5.01 Bohr mag/cell

[...]

     negative rho (up, down):  0.000E+00 7.131E-06

[...]

     negative rho (up, down):  0.000E+00 9.626E-05

[...]

     Magnetic moment per site:
     atom:    1    charge:   14.4202    magn:    0.0006    constr:    0.0000
     atom:    2    charge:   14.4202    magn:   -0.0006    constr:    0.0000

     End of self-consistent calculation

     Number of k-points >= 100: set verbosity='high' to print the bands.

     the Fermi energy is    20.5800 ev

!    total energy              =    -658.53269099 Ry

     total all-electron energy =     -5091.125762 Ry
     estimated scf accuracy    <          4.7E-09 Ry
     smearing contrib. (-TS)   =      -0.00118508 Ry
     internal energy E=F+TS    =    -658.53150592 Ry

     The total energy is F=E-TS. E is the sum of the following terms:
     one-electron contribution =    -200.28308073 Ry
     hartree contribution      =     123.54194879 Ry
     xc contribution           =     -69.50410032 Ry
     ewald contribution        =    -359.96918370 Ry
     one-center paw contrib.   =    -152.31708996 Ry

[...]

     convergence has been achieved in  38 iterations

     Forces acting on atoms (cartesian axes, Ry/au):

     atom    1 type  1   force =     0.00000051   -0.00000148    0.00000137
     atom    2 type  1   force =    -0.00000051    0.00000148   -0.00000137

     Total force =     0.000003     Total SCF correction =     0.000007
     SCF correction compared to forces is large: reduce conv_thr to get better values

     Computing stress (Cartesian axis) and pressure

          total   stress  (Ry/bohr**3)                   (kbar)     P=      -17.08
  -0.00024201   0.00000000   0.00000002          -35.60        0.00        0.00
   0.00000000  -0.00024204  -0.00000001            0.00      -35.60       -0.00
   0.00000002  -0.00000001   0.00013579            0.00       -0.00       19.97

     BFGS Geometry Optimization
     Energy error            =      0.0E+00
     Gradient error          =      1.5E-06
     Cell gradient error     =      2.4E-04

     number of scf cycles    =   1
     number of bfgs steps    =   0

     enthalpy new            =    -658.5326909939 Ry

     new trust radius        =       0.0142464406 bohr
     new conv_thr            =       0.0000000100 Ry

     new unit-cell volume =    137.37689 a.u.^3 (    20.35716 Ang^3 )
     density =      9.11059 g/cm^3

CELL_PARAMETERS (angstrom)
   2.450837168   0.000000157   0.000001058
  -1.225418159   2.122486046  -0.000001250
   0.000001673  -0.000001318   3.913431787

ATOMIC_POSITIONS (angstrom)
Fe            1.2254214755        0.7074929793        2.9350748579
Fe           -0.0000007934        1.4149919059        0.9783567364

     Writing output data file ./pwscf.save/
     NEW-OLD atomic charge density approx. for the potential

     Check: negative core charge=   -0.000011
     extrapolated charge   31.71881, renormalised to   32.00000
     Generating pointlists ...

[...]

     Total force =     0.000001     Total SCF correction =     0.000000

[...]

     Energy error            =      2.4E-04
     Gradient error          =      7.8E-07
     Cell gradient error     =      9.8E-05

[...]

     enthalpy old            =    -658.5326909939 Ry
     enthalpy new            =    -658.5329284368 Ry

     CASE: enthalpy_new < enthalpy_old

[...]

     Total force =     0.000002     Total SCF correction =     0.000000

[...]

     number of scf cycles    =   3
     number of bfgs steps    =   2

     enthalpy old            =    -658.5329284368 Ry
     enthalpy new            =    -658.5329407723 Ry

     CASE: enthalpy_new < enthalpy_old

     new trust radius        =       0.0013892889 bohr
     new conv_thr            =            1.0E-10 Ry

     new unit-cell volume =    137.70827 a.u.^3 (    20.40626 Ang^3 )
     density =      9.08866 g/cm^3

[...]

ATOMIC_POSITIONS (angstrom)
Fe            1.2256393595        0.7076216946        2.9410969793
Fe           -0.0000010163        1.4152463838        0.9803654686

     Writing output data file ./pwscf.save/
     NEW-OLD atomic charge density approx. for the potential

     Check: negative core charge=   -0.000011
     extrapolated charge   31.97536, renormalised to   32.00000
     Generating pointlists ...

[...]

     Energy error            =      1.3E-06
     Gradient error          =      3.2E-07
     Cell gradient error     =      4.9E-07

     bfgs converged in   4 scf cycles and   3 bfgs steps
     (criteria: energy <  1.0E-05 Ry, force <  1.0E-04Ry/Bohr, cell <  1.0E-01kbar)

     End of BFGS Geometry Optimization

     Final enthalpy =    -658.5329420397 Ry

     File ./pwscf.bfgs deleted, as requested
Begin final coordinates
     new unit-cell volume =    137.70827 a.u.^3 (    20.40626 Ang^3 )
     density =      9.08866 g/cm^3

CELL_PARAMETERS (angstrom)
   2.451276824  -0.000000249  -0.000000104
  -1.225638339   2.122868231   0.000000115
  -0.000000142   0.000000096   3.921462437

ATOMIC_POSITIONS (angstrom)
Fe            1.2256393595        0.7076216946        2.9410969793
Fe           -0.0000010163        1.4152463838        0.9803654686
End final coordinates

     Writing output data file ./pwscf.save/

     Final scf calculation at the relaxed structure.
     The G-vectors are recalculated for the final unit cell
     Results may differ from those at the preceding step.

     bravais-lattice index     =            0
     lattice parameter (alat)  =       4.6596  a.u.
     unit-cell volume          =     137.7083 (a.u.)^3
     number of atoms/cell      =            2
     number of atomic types    =            1
     number of electrons       =        32.00
     number of Kohn-Sham states=           20
     kinetic-energy cutoff     =      90.0000  Ry
     charge density cutoff     =    1080.0000  Ry
     scf convergence threshold =      1.0E-10
     mixing beta               =       0.2000
     number of iterations used =            8  plain     mixing
     press convergence thresh. =      1.0E-01
     Exchange-correlation= SLA  PW   PBX  PBC
                           (   1   4   3   4   0   0   0)

     celldm(1)=   4.659603  celldm(2)=   0.000000  celldm(3)=   0.000000
     celldm(4)=   0.000000  celldm(5)=   0.000000  celldm(6)=   0.000000

     crystal axes: (cart. coord. in units of alat)
               a(1) = (   0.994128  -0.000000  -0.000000 )
               a(2) = (  -0.497064   0.860940   0.000000 )
               a(3) = (  -0.000000   0.000000   1.590369 )

     reciprocal axes: (cart. coord. in units 2 pi/alat)
               b(1) = (  1.005907  0.580760  0.000000 )
               b(2) = (  0.000000  1.161521 -0.000000 )
               b(3) = (  0.000000 -0.000000  0.628785 )

     PseudoPot. # 1 for Fe read from file:
     /opt/QEpot/SSSP_precision_pseudos/Fe.pbe-spn-kjpaw_psl.0.2.1.UPF
     MD5 check sum: e86618425769142926afa95317d90200
     Pseudo is Projector augmented-wave + core cor, Zval = 16.0
     Generated using "atomic" code by A. Dal Corso  v.5.0.99 svn rev. 10869
     Shape of augmentation charge: PSQ
     Using radial grid of 1191 points,  6 beta functions with:
                l(1) =   0
                l(2) =   0
                l(3) =   1
                l(4) =   1
                l(5) =   2
                l(6) =   2
     Q(r) pseudized with 0 coefficients

     atomic species   valence    mass     pseudopotential
        Fe            16.00    55.84500     Fe( 1.00)

     Starting magnetic structure
     atomic species   magnetization
        Fe          -0.000

     No symmetry found

   Cartesian axes

     site n.     atom                  positions (alat units)
         1           Fe  tau(   1) = (   0.4970644   0.2869796   1.1927771  )
         2           Fe  tau(   2) = (  -0.0000004   0.5739605   0.3975923  )

     number of k points=    63  Gaussian smearing, width (Ry)=  0.0100
                       cart. coord. in units 2pi/alat
        k(    1) = (   0.0000000   0.0000000   0.0000000), wk =   0.0080000
        k(    2) = (   0.0000000  -0.0000000   0.1257569), wk =   0.0160000
        k(    3) = (   0.0000000  -0.0000000   0.2515139), wk =   0.0160000
        k(    4) = (   0.0000000   0.2323042  -0.0000000), wk =   0.0160000
        k(    5) = (   0.0000000   0.2323042   0.1257569), wk =   0.0160000
        k(    6) = (   0.0000000   0.2323042   0.2515139), wk =   0.0160000
        k(    7) = (   0.0000000   0.2323042  -0.2515139), wk =   0.0160000
        k(    8) = (   0.0000000   0.2323042  -0.1257570), wk =   0.0160000
        k(    9) = (   0.0000000   0.4646084  -0.0000000), wk =   0.0160000
        k(   10) = (   0.0000001   0.4646084   0.1257569), wk =   0.0160000
        k(   11) = (   0.0000001   0.4646084   0.2515139), wk =   0.0160000
        k(   12) = (   0.0000000   0.4646084  -0.2515139), wk =   0.0160000
        k(   13) = (   0.0000000   0.4646084  -0.1257570), wk =   0.0160000
        k(   14) = (   0.2011813   0.1161521   0.0000000), wk =   0.0160000
        k(   15) = (   0.2011814   0.1161521   0.1257570), wk =   0.0160000
        k(   16) = (   0.2011814   0.1161521   0.2515139), wk =   0.0160000
        k(   17) = (   0.2011813   0.1161521  -0.2515139), wk =   0.0160000
        k(   18) = (   0.2011813   0.1161521  -0.1257569), wk =   0.0160000
        k(   19) = (   0.2011814   0.3484563  -0.0000000), wk =   0.0160000
        k(   20) = (   0.2011814   0.3484563   0.1257569), wk =   0.0160000
        k(   21) = (   0.2011814   0.3484563   0.2515139), wk =   0.0160000
        k(   22) = (   0.2011814   0.3484563  -0.2515139), wk =   0.0160000
        k(   23) = (   0.2011814   0.3484563  -0.1257569), wk =   0.0160000
        k(   24) = (   0.2011814   0.5807605  -0.0000000), wk =   0.0160000
        k(   25) = (   0.2011814   0.5807604   0.1257569), wk =   0.0160000
        k(   26) = (   0.2011814   0.5807604   0.2515139), wk =   0.0160000
        k(   27) = (   0.2011814   0.5807605  -0.2515139), wk =   0.0160000
        k(   28) = (   0.2011814   0.5807605  -0.1257570), wk =   0.0160000
        k(   29) = (   0.2011813  -0.3484563   0.0000000), wk =   0.0160000
        k(   30) = (   0.2011813  -0.3484563   0.1257570), wk =   0.0160000
        k(   31) = (   0.2011813  -0.3484563   0.2515139), wk =   0.0160000
        k(   32) = (   0.2011813  -0.3484563  -0.2515139), wk =   0.0160000
        k(   33) = (   0.2011813  -0.3484563  -0.1257569), wk =   0.0160000
        k(   34) = (   0.2011813  -0.1161521   0.0000000), wk =   0.0160000
        k(   35) = (   0.2011813  -0.1161521   0.1257570), wk =   0.0160000
        k(   36) = (   0.2011813  -0.1161521   0.2515139), wk =   0.0160000
        k(   37) = (   0.2011813  -0.1161521  -0.2515139), wk =   0.0160000
        k(   38) = (   0.2011813  -0.1161521  -0.1257569), wk =   0.0160000
        k(   39) = (   0.4023627   0.2323042   0.0000000), wk =   0.0160000
        k(   40) = (   0.4023627   0.2323042   0.1257570), wk =   0.0160000
        k(   41) = (   0.4023627   0.2323042   0.2515139), wk =   0.0160000
        k(   42) = (   0.4023627   0.2323042  -0.2515139), wk =   0.0160000
        k(   43) = (   0.4023627   0.2323042  -0.1257569), wk =   0.0160000
        k(   44) = (   0.4023627   0.4646084   0.0000000), wk =   0.0160000
        k(   45) = (   0.4023627   0.4646083   0.1257569), wk =   0.0160000
        k(   46) = (   0.4023627   0.4646083   0.2515139), wk =   0.0160000
        k(   47) = (   0.4023627   0.4646084  -0.2515139), wk =   0.0160000
        k(   48) = (   0.4023627   0.4646084  -0.1257569), wk =   0.0160000
        k(   49) = (   0.4023627   0.6969125  -0.0000000), wk =   0.0160000
        k(   50) = (   0.4023627   0.6969125   0.1257569), wk =   0.0160000
        k(   51) = (   0.4023627   0.6969125   0.2515139), wk =   0.0160000
        k(   52) = (   0.4023627   0.6969125  -0.2515139), wk =   0.0160000
        k(   53) = (   0.4023627   0.6969125  -0.1257569), wk =   0.0160000
        k(   54) = (   0.4023626  -0.2323042   0.0000000), wk =   0.0160000
        k(   55) = (   0.4023627  -0.2323042   0.1257570), wk =   0.0160000
        k(   56) = (   0.4023627  -0.2323042   0.2515139), wk =   0.0160000
        k(   57) = (   0.4023626  -0.2323042  -0.2515139), wk =   0.0160000
        k(   58) = (   0.4023626  -0.2323042  -0.1257569), wk =   0.0160000
        k(   59) = (   0.4023627  -0.0000000   0.0000000), wk =   0.0160000
        k(   60) = (   0.4023627  -0.0000000   0.1257570), wk =   0.0160000
        k(   61) = (   0.4023627  -0.0000000   0.2515139), wk =   0.0160000
        k(   62) = (   0.4023627  -0.0000000  -0.2515139), wk =   0.0160000
        k(   63) = (   0.4023627  -0.0000000  -0.1257569), wk =   0.0160000

     Check: negative core charge=   -0.000011
     Generating pointlists ...

     Initial potential from superposition of free atoms

     starting charge   31.99912, renormalised to   32.00000
     Starting wfcs are   26 randomized atomic wfcs
     Checking if some PAW data can be deallocated...

     Self-consistent Calculation

[...]

     total energy              =    -658.53292096 Ry
     estimated scf accuracy    <          3.2E-10 Ry

[...]

     iteration # 14     ecut=    90.00 Ry     beta= 0.20
     Davidson diagonalization with overlap
     ethr =  1.01E-12,  avg # of iterations =  3.9

     Magnetic moment per site:
     atom:    1    charge:   14.4288    magn:    0.0001    constr:    0.0000
     atom:    2    charge:   14.4288    magn:   -0.0001    constr:    0.0000

     End of self-consistent calculation

     Number of k-points >= 100: set verbosity='high' to print the bands.

     the Fermi energy is    20.7460 ev

!    total energy              =    -658.53292143 Ry

     total all-electron energy =     -5091.125992 Ry
     estimated scf accuracy    <          5.0E-11 Ry
     smearing contrib. (-TS)   =      -0.00116553 Ry
     internal energy E=F+TS    =    -658.53175590 Ry

     The total energy is F=E-TS. E is the sum of the following terms:
     one-electron contribution =    -199.04013569 Ry
     hartree contribution      =     123.10288190 Ry
     xc contribution           =     -69.51594639 Ry
     ewald contribution        =    -360.76120460 Ry
     one-center paw contrib.   =    -152.31735112 Ry

     total magnetization       =     0.00 Bohr mag/cell
     absolute magnetization    =     0.00 Bohr mag/cell

     convergence has been achieved in  14 iterations

     Forces acting on atoms (cartesian axes, Ry/au):

     atom    1 type  1   force =     0.00000100    0.00000056    0.00000037
     atom    2 type  1   force =    -0.00000100   -0.00000056   -0.00000037

     Total force =     0.000002     Total SCF correction =     0.000002
     SCF correction compared to forces is large: reduce conv_thr to get better values

     Computing stress (Cartesian axis) and pressure

          total   stress  (Ry/bohr**3)                   (kbar)     P=       -0.46
  -0.00000469   0.00000001  -0.00000000           -0.69        0.00       -0.00
   0.00000001  -0.00000469  -0.00000001            0.00       -0.69       -0.00
  -0.00000000  -0.00000001  -0.00000009           -0.00       -0.00       -0.01

     General routines

     Parallel routines

   This run was terminated on:  22:59:58  16May2022

   JOB DONE.
Note: The following floating-point exceptions are signalling: IEEE_UNDERFLOW_FLAG IEEE_DENORMAL
Note: The following floating-point exceptions are signalling: IEEE_DENORMAL
Note: The following floating-point exceptions are signalling: IEEE_DENORMAL
Note: The following floating-point exceptions are signalling: IEEE_DENORMAL