     Program PWSCF v.6.7MaX starts on  9Feb2022 at 11: 5:33

     R & G space division:  proc/nbgrp/npool/nimage =      24
     Reading input from /home/kevin/QE_CoCrFeMnNi/CoCrFeMnNi/Opt/binary/Opt-B1-CrFe/Mix/MD/300K_0.0001Gpa-B1-CrFe/300K_0.0001Gpa-B1-CrFe.in

     Current dimensions of program PWSCF are:
     Max number of different atomic species (ntypx) = 10
     Max number of k-points (npk) =  40000
     Max angular momentum in pseudopotentials (lmaxx) =  3
     file Fe.pbe-spn-kjpaw_psl.0.2.1.UPF: wavefunction(s)  3D renormalized

     Subspace diagonalization in iterative solution of the eigenvalue problem:
     a serial algorithm will be used

     Found symmetry operation: I + (  0.0000  0.5000 -0.5000)
     This is a supercell, fractional translations are disabled

     bravais-lattice index     =            0
     lattice parameter (alat)  =       8.6823  a.u.
     unit-cell volume          =     654.5026 (a.u.)^3
     number of atoms/cell      =            8
     number of atomic types    =            2
     number of electrons       =       120.00
     number of Kohn-Sham states=           72
     kinetic-energy cutoff     =      90.0000  Ry
     charge density cutoff     =    1080.0000  Ry
     scf convergence threshold =      1.0E-08
     mixing beta               =       0.2000
     number of iterations used =            4  plain     mixing
     energy convergence thresh.=      0.0E+00
     force convergence thresh. =      0.0E+00
     press convergence thresh. =      0.0E+00
     Exchange-correlation=  SLA  PW   PBX  PBC
                           (   1   4   3   4   0   0   0)
     nstep                     =          102

     celldm(1)=   8.682347  celldm(2)=   0.000000  celldm(3)=   0.000000
     celldm(4)=   0.000000  celldm(5)=   0.000000  celldm(6)=   0.000000

     crystal axes: (cart. coord. in units of alat)
               a(1) = (   1.000000   0.000000   0.000000 )
               a(2) = (   0.000000   1.000000   0.000000 )
               a(3) = (   0.000000   0.000000   1.000000 )

     reciprocal axes: (cart. coord. in units 2 pi/alat)
               b(1) = (  1.000000  0.000000  0.000000 )
               b(2) = (  0.000000  1.000000  0.000000 )
               b(3) = (  0.000000  0.000000  1.000000 )

     PseudoPot. # 1 for Fe read from file:
     /opt/QEpot/SSSP_efficiency_pseudos/Fe.pbe-spn-kjpaw_psl.0.2.1.UPF
     MD5 check sum: e86618425769142926afa95317d90200
     Pseudo is Projector augmented-wave + core cor, Zval = 16.0
     Generated using "atomic" code by A. Dal Corso  v.5.0.99 svn rev. 10869
     Shape of augmentation charge: PSQ
     Using radial grid of 1191 points,  6 beta functions with:
                l(1) =   0
                l(2) =   0
                l(3) =   1
                l(4) =   1
                l(5) =   2
                l(6) =   2
     Q(r) pseudized with 0 coefficients

     PseudoPot. # 2 for Cr read from file:
     /opt/QEpot/SSSP_efficiency_pseudos/cr_pbe_v1.5.uspp.F.UPF
     MD5 check sum: 0d52af634a40206e4dee301ad30da4bf
     Pseudo is Ultrasoft + core correction, Zval = 14.0
     Generated by new atomic code, or converted to UPF format
     Using radial grid of  857 points,  6 beta functions with:
                l(1) =   0
                l(2) =   0
                l(3) =   1
                l(4) =   1
                l(5) =   2
                l(6) =   2
     Q(r) pseudized with  8 coefficients,  rinner =    0.950   0.950   0.950
                                                       0.950   0.950

     atomic species   valence    mass     pseudopotential
        Fe            16.00    55.84500     Fe( 1.00)
        Cr            14.00    51.99610     Cr( 1.00)

      cell mass =  32.77976 AMU

     Starting magnetic structure
     atomic species   magnetization
        Fe          -0.000
        Cr           0.000

     No symmetry found

   Cartesian axes

     site n.     atom                  positions (alat units)
         1           Fe  tau(   1) = (   0.0000000   0.5000000   0.0000000  )
         2           Cr  tau(   2) = (   0.5000000   0.0000000   0.5000000  )
         3           Fe  tau(   3) = (   0.0000000   0.0000000   0.5000000  )
         4           Cr  tau(   4) = (   0.5000000   0.5000000   0.0000000  )
         5           Fe  tau(   5) = (   0.5000000   0.0000000   0.0000000  )
         6           Cr  tau(   6) = (   0.0000000   0.5000000   0.5000000  )
         7           Fe  tau(   7) = (   0.5000000   0.5000000   0.5000000  )
         8           Cr  tau(   8) = (   0.0000000   0.0000000   0.0000000  )

     number of k points=    63  Gaussian smearing, width (Ry)=  0.0100
                       cart. coord. in units 2pi/alat
        k(    1) = (   0.0000000   0.0000000   0.0000000), wk =   0.0080000
        k(    2) = (   0.0000000   0.0000000   0.2000000), wk =   0.0160000
        k(    3) = (   0.0000000   0.0000000   0.4000000), wk =   0.0160000
        k(    4) = (   0.0000000   0.2000000   0.0000000), wk =   0.0160000
        k(    5) = (   0.0000000   0.2000000   0.2000000), wk =   0.0160000
        k(    6) = (   0.0000000   0.2000000   0.4000000), wk =   0.0160000
        k(    7) = (   0.0000000   0.2000000  -0.4000000), wk =   0.0160000
        k(    8) = (   0.0000000   0.2000000  -0.2000000), wk =   0.0160000
        k(    9) = (   0.0000000   0.4000000   0.0000000), wk =   0.0160000
        k(   10) = (   0.0000000   0.4000000   0.2000000), wk =   0.0160000
        k(   11) = (   0.0000000   0.4000000   0.4000000), wk =   0.0160000
        k(   12) = (   0.0000000   0.4000000  -0.4000000), wk =   0.0160000
        k(   13) = (   0.0000000   0.4000000  -0.2000000), wk =   0.0160000
        k(   14) = (   0.2000000   0.0000000   0.0000000), wk =   0.0160000
        k(   15) = (   0.2000000   0.0000000   0.2000000), wk =   0.0160000
        k(   16) = (   0.2000000   0.0000000   0.4000000), wk =   0.0160000
        k(   17) = (   0.2000000   0.0000000  -0.4000000), wk =   0.0160000
        k(   18) = (   0.2000000   0.0000000  -0.2000000), wk =   0.0160000
        k(   19) = (   0.2000000   0.2000000   0.0000000), wk =   0.0160000
        k(   20) = (   0.2000000   0.2000000   0.2000000), wk =   0.0160000
        k(   21) = (   0.2000000   0.2000000   0.4000000), wk =   0.0160000
        k(   22) = (   0.2000000   0.2000000  -0.4000000), wk =   0.0160000
        k(   23) = (   0.2000000   0.2000000  -0.2000000), wk =   0.0160000
        k(   24) = (   0.2000000   0.4000000   0.0000000), wk =   0.0160000
        k(   25) = (   0.2000000   0.4000000   0.2000000), wk =   0.0160000
        k(   26) = (   0.2000000   0.4000000   0.4000000), wk =   0.0160000
        k(   27) = (   0.2000000   0.4000000  -0.4000000), wk =   0.0160000
        k(   28) = (   0.2000000   0.4000000  -0.2000000), wk =   0.0160000
        k(   29) = (   0.2000000  -0.4000000   0.0000000), wk =   0.0160000
        k(   30) = (   0.2000000  -0.4000000   0.2000000), wk =   0.0160000
        k(   31) = (   0.2000000  -0.4000000   0.4000000), wk =   0.0160000
        k(   32) = (   0.2000000  -0.4000000  -0.4000000), wk =   0.0160000
        k(   33) = (   0.2000000  -0.4000000  -0.2000000), wk =   0.0160000
        k(   34) = (   0.2000000  -0.2000000   0.0000000), wk =   0.0160000
        k(   35) = (   0.2000000  -0.2000000   0.2000000), wk =   0.0160000
        k(   36) = (   0.2000000  -0.2000000   0.4000000), wk =   0.0160000
        k(   37) = (   0.2000000  -0.2000000  -0.4000000), wk =   0.0160000
        k(   38) = (   0.2000000  -0.2000000  -0.2000000), wk =   0.0160000
        k(   39) = (   0.4000000   0.0000000   0.0000000), wk =   0.0160000
        k(   40) = (   0.4000000   0.0000000   0.2000000), wk =   0.0160000
        k(   41) = (   0.4000000   0.0000000   0.4000000), wk =   0.0160000
        k(   42) = (   0.4000000   0.0000000  -0.4000000), wk =   0.0160000
        k(   43) = (   0.4000000   0.0000000  -0.2000000), wk =   0.0160000
        k(   44) = (   0.4000000   0.2000000   0.0000000), wk =   0.0160000
        k(   45) = (   0.4000000   0.2000000   0.2000000), wk =   0.0160000
        k(   46) = (   0.4000000   0.2000000   0.4000000), wk =   0.0160000
        k(   47) = (   0.4000000   0.2000000  -0.4000000), wk =   0.0160000
        k(   48) = (   0.4000000   0.2000000  -0.2000000), wk =   0.0160000
        k(   49) = (   0.4000000   0.4000000   0.0000000), wk =   0.0160000
        k(   50) = (   0.4000000   0.4000000   0.2000000), wk =   0.0160000
        k(   51) = (   0.4000000   0.4000000   0.4000000), wk =   0.0160000
        k(   52) = (   0.4000000   0.4000000  -0.4000000), wk =   0.0160000
        k(   53) = (   0.4000000   0.4000000  -0.2000000), wk =   0.0160000
        k(   54) = (   0.4000000  -0.4000000   0.0000000), wk =   0.0160000
        k(   55) = (   0.4000000  -0.4000000   0.2000000), wk =   0.0160000
        k(   56) = (   0.4000000  -0.4000000   0.4000000), wk =   0.0160000
        k(   57) = (   0.4000000  -0.4000000  -0.4000000), wk =   0.0160000
        k(   58) = (   0.4000000  -0.4000000  -0.2000000), wk =   0.0160000
        k(   59) = (   0.4000000  -0.2000000   0.0000000), wk =   0.0160000
        k(   60) = (   0.4000000  -0.2000000   0.2000000), wk =   0.0160000
        k(   61) = (   0.4000000  -0.2000000   0.4000000), wk =   0.0160000
        k(   62) = (   0.4000000  -0.2000000  -0.4000000), wk =   0.0160000
        k(   63) = (   0.4000000  -0.2000000  -0.2000000), wk =   0.0160000

     Check: negative core charge=   -0.000008
     Generating pointlists ...
     new r_m :   0.2063 (alat units)  1.7907 (a.u.) for type    1
     new r_m :   0.2063 (alat units)  1.7907 (a.u.) for type    2

     Initial potential from superposition of free atoms

     starting charge  115.99819, renormalised to  120.00000

     negative rho (up, down):  1.574E-03 1.574E-03
     Starting wfcs are   92 randomized atomic wfcs
     Checking if some PAW data can be deallocated...

     Self-consistent Calculation

     iteration #  1     ecut=    90.00 Ry     beta= 0.20
     Davidson diagonalization with overlap
     ethr =  1.00E-02,  avg # of iterations =  2.0

     negative rho (up, down):  1.181E-03 1.181E-03

     total energy              =   -2012.01026034 Ry
     estimated scf accuracy    <      26.58292517 Ry

     total magnetization       =    -0.00 Bohr mag/cell
     absolute magnetization    =     0.01 Bohr mag/cell

[...]

     iteration # 17     ecut=    90.00 Ry     beta= 0.20
     Davidson diagonalization with overlap
     c_bands:  1 eigenvalues not converged
     c_bands:  1 eigenvalues not converged
     c_bands:  1 eigenvalues not converged
     ethr =  2.41E-06,  avg # of iterations =  3.5

[...]

     Magnetic moment per site:
     atom:    1    charge:   14.1929    magn:   -0.0010    constr:    0.0000
     atom:    2    charge:   11.8096    magn:    0.0019    constr:    0.0000
     atom:    3    charge:   14.1929    magn:   -0.0006    constr:    0.0000
     atom:    4    charge:   11.8096    magn:    0.0014    constr:    0.0000
     atom:    5    charge:   14.1929    magn:   -0.0016    constr:    0.0000
     atom:    6    charge:   11.8096    magn:    0.0009    constr:    0.0000
     atom:    7    charge:   14.1929    magn:   -0.0013    constr:    0.0000
     atom:    8    charge:   11.8096    magn:    0.0010    constr:    0.0000

     End of self-consistent calculation

     Number of k-points >= 100: set verbosity='high' to print the bands.

     the Fermi energy is    17.9114 ev

!    total energy              =   -2018.52503719 Ry
     estimated scf accuracy    <          9.2E-09 Ry
     smearing contrib. (-TS)   =      -0.00525713 Ry
     internal energy E=F+TS    =   -2018.51978006 Ry

[...]

     convergence has been achieved in  35 iterations

[...]

     Forces acting on atoms (cartesian axes, Ry/au):

     atom    1 type  1   force =     0.00000134   -0.00000004    0.00000138
     atom    2 type  2   force =     0.00000024   -0.00000034   -0.00000013
     atom    3 type  1   force =     0.00000289   -0.00000036    0.00000056
     atom    4 type  2   force =     0.00000007   -0.00000024   -0.00000026
     atom    5 type  1   force =    -0.00000205    0.00000076    0.00000009
     atom    6 type  2   force =     0.00000043   -0.00000040   -0.00000036
     atom    7 type  1   force =    -0.00000315    0.00000114   -0.00000127
     atom    8 type  2   force =     0.00000024   -0.00000051   -0.00000001

     Total force =     0.000006     Total SCF correction =     0.000010
     SCF correction compared to forces is large: reduce conv_thr to get better values

     Computing stress (Cartesian axis) and pressure

     negative rho (up, down):  1.657E-03 1.661E-03
          total   stress  (Ry/bohr**3)                   (kbar)     P=        0.12
   0.00000087   0.00000001   0.00000003            0.13        0.00        0.00
   0.00000001   0.00000076  -0.00000001            0.00        0.11       -0.00
   0.00000003  -0.00000001   0.00000088            0.00       -0.00        0.13

     Entering Dynamics;  it =     1   time =  0.00000 pico-seconds

  new lattice vectors (alat unit) :
   1.000001939  -0.000000756  -0.000000056
  -0.000000756   1.000000726   0.000000689
  -0.000000056   0.000000689   1.000002252
  new unit-cell volume =    654.5058 (a.u.)^3
  new positions in cryst coord
Fe      -0.000976494   0.500173456  -0.000438492
Cr       0.500045746  -0.000047726   0.499786009
Fe       0.000212109  -0.000002279   0.500799729
Cr       0.500151179   0.499704446  -0.000499179
Fe       0.500761771  -0.000526186  -0.000556891
Cr      -0.000221488   0.500266037   0.500709435
Fe       0.500002614   0.500355010   0.500195655
Cr       0.000024563   0.000077242   0.000003734
  new positions in cart coord (alat unit)
Fe      -0.000976874   0.500173819  -0.000438148
Cr       0.500046688  -0.000047760   0.499787106
Fe       0.000212082  -0.000001934   0.500800857
Cr       0.500151771   0.499704431  -0.000498863
Fe       0.500762742  -0.000526565  -0.000556921
Cr      -0.000221895   0.500266746   0.500710908
Fe       0.500003176   0.500355340   0.500197098
Cr       0.000024563   0.000077242   0.000003734

     Ekin =     0.01995091 Ry    T =    0.0 K  Etot =    -2018.50508183
     new unit-cell volume =    654.50581 a.u.^3 (    96.98775 Ang^3 )
     density =      7.38544 g/cm^3

CELL_PARAMETERS (angstrom)
   4.594508907  -0.000003475  -0.000000258
  -0.000003475   4.594503335   0.000003168
  -0.000000258   0.000003168   4.594510347

ATOMIC_POSITIONS (angstrom)
Fe           -0.0044882494        2.2980486123       -0.0020130729
Cr            2.2974645060       -0.0002194316        2.2962718601
Fe            0.0009744086       -0.0000088864        2.3009295372
Cr            2.2979473126        2.2958920062       -0.0022920277
Fe            2.3007544185       -0.0024193044       -0.0025587736
Cr           -0.0010194955        2.2984755627        2.3005162666
Fe            2.2972645943        2.2988826110        2.2981555682
Cr            0.0001128545        0.0003548864        0.0000171556

     Writing output data file ./pwscf.save/
     NEW-OLD atomic charge density approx. for the potential

     Check: negative core charge=   -0.000008

     negative rho (up, down):  1.652E-03 1.657E-03
     extrapolated charge  120.00057, renormalised to  120.00000
     Generating pointlists ...

[...]

     Total force =     0.003485     Total SCF correction =     0.000191

[...]

     negative rho (up, down):  1.673E-03 1.685E-03
     extrapolated charge  120.00405, renormalised to  120.00000
     Generating pointlists ...
     new r_m :   0.2039 (alat units)  1.7705 (a.u.) for type    1
     new r_m :   0.2039 (alat units)  1.7705 (a.u.) for type    2

[...]

     negative rho (up, down):  1.818E-03 1.824E-03
     extrapolated charge  120.03196, renormalised to  120.00000
     Generating pointlists ...
     new r_m :   0.1972 (alat units)  1.7124 (a.u.) for type    1
     new r_m :   0.1972 (alat units)  1.7124 (a.u.) for type    2

[...]

     iteration #  6     ecut=    90.00 Ry     beta= 0.20
     Davidson diagonalization with overlap
     c_bands:  1 eigenvalues not converged
     c_bands:  1 eigenvalues not converged
     ethr =  1.38E-06,  avg # of iterations =  1.8

[...]

     Writing output data file ./pwscf.save/
     NEW-OLD atomic charge density approx. for the potential

     Check: negative core charge=   -0.000007

     negative rho (up, down):  1.814E-03 1.827E-03
     extrapolated charge  119.92100, renormalised to  120.00000
     Generating pointlists ...

     Self-consistent Calculation

[...]

     total energy              =   -2018.67569475 Ry
     estimated scf accuracy    <       0.00000005 Ry

[...]

     iteration # 60     ecut=    90.00 Ry     beta= 0.20
     Davidson diagonalization with overlap
     ethr =  8.58E-12,  avg # of iterations =  1.1

[...]

     Magnetic moment per site:
     atom:    1    charge:   13.8996    magn:    0.0024    constr:    0.0000
     atom:    2    charge:   11.5452    magn:    0.0028    constr:    0.0000
     atom:    3    charge:   13.9035    magn:    0.0019    constr:    0.0000
     atom:    4    charge:   11.5376    magn:    0.0004    constr:    0.0000
     atom:    5    charge:   13.8798    magn:   -0.0079    constr:    0.0000
     atom:    6    charge:   11.5547    magn:   -0.0009    constr:    0.0000
     atom:    7    charge:   13.9052    magn:   -0.0021    constr:    0.0000
     atom:    8    charge:   11.5461    magn:   -0.0014    constr:    0.0000

     End of self-consistent calculation

     Number of k-points >= 100: set verbosity='high' to print the bands.

     the Fermi energy is    18.3946 ev

!    total energy              =   -2018.67569476 Ry
     estimated scf accuracy    <          2.1E-09 Ry
     smearing contrib. (-TS)   =      -0.00904037 Ry
     internal energy E=F+TS    =   -2018.66665439 Ry

     total magnetization       =    -0.00 Bohr mag/cell
     absolute magnetization    =     0.02 Bohr mag/cell

     convergence has been achieved in  60 iterations

     negative rho (up, down):  1.821E-03 1.822E-03

     Forces acting on atoms (cartesian axes, Ry/au):

     atom    1 type  1   force =    -0.02339742    0.00465425   -0.01664712
     atom    2 type  2   force =     0.01724563    0.03976376    0.00624708
     atom    3 type  1   force =     0.00432933   -0.03087874    0.04048606
     atom    4 type  2   force =    -0.03110341    0.00135206   -0.01531813
     atom    5 type  1   force =     0.00258222   -0.02093541   -0.03272292
     atom    6 type  2   force =     0.01632550   -0.02100124   -0.00958861
     atom    7 type  1   force =     0.02459333    0.04101975   -0.00392155
     atom    8 type  2   force =    -0.01057518   -0.01397443    0.03146519

     Total force =     0.111778     Total SCF correction =     0.000034

     Computing stress (Cartesian axis) and pressure

     negative rho (up, down):  1.821E-03 1.822E-03
          total   stress  (Ry/bohr**3)                   (kbar)     P=       -1.74
  -0.00009742   0.00021184   0.00014503          -14.33       31.16       21.34
   0.00021184   0.00008050  -0.00005447           31.16       11.84       -8.01
   0.00014503  -0.00005447  -0.00001860           21.34       -8.01       -2.74

     Entering Dynamics;  it =   102   time =  0.09772 pico-seconds

  new lattice vectors (alat unit) :
   0.993979369   0.028017686   0.019638857
   0.028017686   0.989420488  -0.006321905
   0.019638857  -0.006321905   0.991988323
  new unit-cell volume =    637.7325 (a.u.)^3
  new positions in cryst coord
Fe      -0.071697847   0.532619402   0.008905240
Cr       0.506879172   0.051660589   0.427723496
Fe       0.006338718  -0.004112370   0.567918300
Cr       0.425908827   0.425626540  -0.014205287
Fe       0.561009430  -0.070051092  -0.061022224
Cr       0.012245906   0.487508538   0.501727476
Fe       0.501267687   0.545927441   0.486409424
Cr       0.058276247   0.030496481   0.082379930
  new positions in cart coord (alat unit)
Fe      -0.056168529   0.524919442   0.004058661
Cr       0.513674850   0.062611599   0.433924647
Fe       0.017338602  -0.007481593   0.563518805
Cr       0.434990682   0.433146403  -0.008417887
Fe       0.554470723  -0.053206023  -0.049072893
Cr       0.035684393   0.479522164   0.494866310
Fe       0.523097887   0.551121121   0.488905492
Cr       0.060397676   0.031285811   0.082671611

     Ekin =     0.03492773 Ry    T =  379.0 K  Etot =    -2018.64076269
     new unit-cell volume =    637.73251 a.u.^3 (    94.50221 Ang^3 )
     density =      7.57969 g/cm^3

CELL_PARAMETERS (angstrom)
   4.566838211   0.128727257   0.090230728
   0.128727257   4.545892431  -0.029045994
   0.090230728  -0.029045994   4.557690348

ATOMIC_POSITIONS (angstrom)
Fe           -0.2580663074        2.4117423774        0.0186475163
Cr            2.3600791004        0.2876689933        1.9936667912
Fe            0.0796622066       -0.0343741771        2.5890871509
Cr            1.9985646902        1.9900911474       -0.0386759804
Fe            2.5475157357       -0.2444550705       -0.2254654086
Cr            0.1639519449        2.2031645823        2.2736632622
Fe            2.4033732437        2.5321259908        2.2462762808
Cr            0.2774971204        0.1437426566        0.3798347176

     Maximum number of iterations reached, stopping

     General routines

     Parallel routines

   This run was terminated on:  19:25:19  10Feb2022

   JOB DONE.
Note: The following floating-point exceptions are signalling: IEEE_INVALID_FLAG IEEE_UNDERFLOW_FLAG IEEE_DENORMAL
Note: The following floating-point exceptions are signalling: IEEE_INVALID_FLAG IEEE_UNDERFLOW_FLAG IEEE_DENORMAL
Note: The following floating-point exceptions are signalling: IEEE_UNDERFLOW_FLAG IEEE_DENORMAL
Note: The following floating-point exceptions are signalling: IEEE_UNDERFLOW_FLAG IEEE_DENORMAL
Note: The following floating-point exceptions are signalling: IEEE_UNDERFLOW_FLAG IEEE_DENORMAL
Note: The following floating-point exceptions are signalling: IEEE_UNDERFLOW_FLAG IEEE_DENORMAL
Note: The following floating-point exceptions are signalling: IEEE_UNDERFLOW_FLAG IEEE_DENORMAL
Note: The following floating-point exceptions are signalling: IEEE_UNDERFLOW_FLAG IEEE_DENORMAL
Note: The following floating-point exceptions are signalling: IEEE_INVALID_FLAG IEEE_UNDERFLOW_FLAG IEEE_DENORMAL
Note: The following floating-point exceptions are signalling: IEEE_UNDERFLOW_FLAG IEEE_DENORMAL
Note: The following floating-point exceptions are signalling: IEEE_UNDERFLOW_FLAG IEEE_DENORMAL
Note: The following floating-point exceptions are signalling: IEEE_UNDERFLOW_FLAG IEEE_DENORMAL
Note: The following floating-point exceptions are signalling: IEEE_UNDERFLOW_FLAG IEEE_DENORMAL
Note: The following floating-point exceptions are signalling: IEEE_UNDERFLOW_FLAG IEEE_DENORMAL
Note: The following floating-point exceptions are signalling: IEEE_UNDERFLOW_FLAG IEEE_DENORMAL
Note: The following floating-point exceptions are signalling: IEEE_UNDERFLOW_FLAG IEEE_DENORMAL
Note: The following floating-point exceptions are signalling: IEEE_UNDERFLOW_FLAG IEEE_DENORMAL
Note: The following floating-point exceptions are signalling: IEEE_UNDERFLOW_FLAG IEEE_DENORMAL
Note: The following floating-point exceptions are signalling: IEEE_UNDERFLOW_FLAG IEEE_DENORMAL
Note: The following floating-point exceptions are signalling: IEEE_UNDERFLOW_FLAG IEEE_DENORMAL
Note: The following floating-point exceptions are signalling: IEEE_UNDERFLOW_FLAG IEEE_DENORMAL
Note: The following floating-point exceptions are signalling: IEEE_UNDERFLOW_FLAG IEEE_DENORMAL
Note: The following floating-point exceptions are signalling: IEEE_UNDERFLOW_FLAG IEEE_DENORMAL
Note: The following floating-point exceptions are signalling: IEEE_UNDERFLOW_FLAG IEEE_DENORMAL