     Program PWSCF v.6.7MaX starts on 27May2022 at 23:27: 9

     R & G space division:  proc/nbgrp/npool/nimage =      24
     Reading input from Fe_mp-1194030.in

     Current dimensions of program PWSCF are:
     Max number of different atomic species (ntypx) = 10
     Max number of k-points (npk) =  40000
     Max angular momentum in pseudopotentials (lmaxx) =  3
     file Fe.pbe-spn-kjpaw_psl.0.2.1.UPF: wavefunction(s)  3D renormalized

     Subspace diagonalization in iterative solution of the eigenvalue problem:
     a serial algorithm will be used

     bravais-lattice index     =            0
     lattice parameter (alat)  =      16.2855  a.u.
     unit-cell volume          =    2292.6649 (a.u.)^3
     number of atoms/cell      =           28
     number of atomic types    =            1
     number of electrons       =       448.00
     number of Kohn-Sham states=          269
     kinetic-energy cutoff     =      90.0000  Ry
     charge density cutoff     =    1080.0000  Ry
     scf convergence threshold =      1.0E-08
     mixing beta               =       0.2000
     number of iterations used =            8  plain     mixing
     energy convergence thresh.=      1.0E-05
     force convergence thresh. =      1.0E-04
     press convergence thresh. =      1.0E-01
     Exchange-correlation= SLA  PW   PBX  PBC
                           (   1   4   3   4   0   0   0)
     nstep                     =         1000

     celldm(1)=  16.285473  celldm(2)=   0.000000  celldm(3)=   0.000000
     celldm(4)=   0.000000  celldm(5)=   0.000000  celldm(6)=   0.000000

     crystal axes: (cart. coord. in units of alat)
               a(1) = (   1.000000   0.000000   0.000000 )
               a(2) = (   0.000000   1.000000   0.000000 )
               a(3) = (   0.000000   0.000000   0.530810 )

     reciprocal axes: (cart. coord. in units 2 pi/alat)
               b(1) = (  1.000000  0.000000  0.000000 )
               b(2) = (  0.000000  1.000000  0.000000 )
               b(3) = (  0.000000  0.000000  1.883912 )

     PseudoPot. # 1 for Fe read from file:
     /opt/QEpot/SSSP_precision_pseudos/Fe.pbe-spn-kjpaw_psl.0.2.1.UPF
     MD5 check sum: e86618425769142926afa95317d90200
     Pseudo is Projector augmented-wave + core cor, Zval = 16.0
     Generated using "atomic" code by A. Dal Corso  v.5.0.99 svn rev. 10869
     Shape of augmentation charge: PSQ
     Using radial grid of 1191 points,  6 beta functions with:
                l(1) =   0
                l(2) =   0
                l(3) =   1
                l(4) =   1
                l(5) =   2
                l(6) =   2
     Q(r) pseudized with 0 coefficients

     atomic species   valence    mass     pseudopotential
        Fe            16.00    55.84500     Fe( 1.00)

     Starting magnetic structure
     atomic species   magnetization
        Fe           0.200

     No symmetry found

   Cartesian axes

     site n.     atom                  positions (alat units)
         1           Fe  tau(   1) = (   0.2153880   0.2153880   0.1350297  )
         2           Fe  tau(   2) = (   0.7846120   0.7846120   0.1350297  )
         3           Fe  tau(   3) = (   0.7153880   0.2846120   0.4004349  )
         4           Fe  tau(   4) = (   0.2846120   0.7153880   0.4004349  )
         5           Fe  tau(   5) = (   0.7846120   0.7846120   0.3957808  )
         6           Fe  tau(   6) = (   0.2153880   0.2153880   0.3957808  )
         7           Fe  tau(   7) = (   0.2846120   0.7153880   0.1303755  )
         8           Fe  tau(   8) = (   0.7153880   0.2846120   0.1303755  )
         9           Fe  tau(   9) = (   0.9685780   0.2292640   0.0000000  )
        10           Fe  tau(  10) = (   0.0314220   0.7707360   0.0000000  )
        11           Fe  tau(  11) = (   0.5314220   0.7292640   0.2654052  )
        12           Fe  tau(  12) = (   0.4685780   0.2707360   0.2654052  )
        13           Fe  tau(  13) = (   0.2292640   0.9685780   0.0000000  )
        14           Fe  tau(  14) = (   0.7707360   0.0314220   0.0000000  )
        15           Fe  tau(  15) = (   0.7292640   0.5314220   0.2654052  )
        16           Fe  tau(  16) = (   0.2707360   0.4685780   0.2654052  )
        17           Fe  tau(  17) = (   0.8667570   0.5190930   0.0000000  )
        18           Fe  tau(  18) = (   0.1332430   0.4809070   0.0000000  )
        19           Fe  tau(  19) = (   0.6332430   0.0190930   0.2654052  )
        20           Fe  tau(  20) = (   0.3667570   0.9809070   0.2654052  )
        21           Fe  tau(  21) = (   0.5190930   0.8667570   0.0000000  )
        22           Fe  tau(  22) = (   0.4809070   0.1332430   0.0000000  )
        23           Fe  tau(  23) = (   0.0190930   0.6332430   0.2654052  )
        24           Fe  tau(  24) = (   0.9809070   0.3667570   0.2654052  )
        25           Fe  tau(  25) = (   0.5950920   0.5950920   0.0000000  )
        26           Fe  tau(  26) = (   0.4049080   0.4049080   0.0000000  )
        27           Fe  tau(  27) = (   0.0950920   0.9049080   0.2654052  )
        28           Fe  tau(  28) = (   0.9049080   0.0950920   0.2654052  )

     number of k points=    14  Gaussian smearing, width (Ry)=  0.0100
                       cart. coord. in units 2pi/alat
        k(    1) = (   0.0000000   0.0000000   0.0000000), wk =   0.0370370
        k(    2) = (   0.0000000   0.0000000   0.6279705), wk =   0.0740741
        k(    3) = (   0.0000000   0.3333333   0.0000000), wk =   0.0740741
        k(    4) = (   0.0000000   0.3333333   0.6279705), wk =   0.0740741
        k(    5) = (   0.0000000   0.3333333  -0.6279705), wk =   0.0740741
        k(    6) = (   0.3333333   0.0000000   0.0000000), wk =   0.0740741
        k(    7) = (   0.3333333   0.0000000   0.6279705), wk =   0.0740741
        k(    8) = (   0.3333333   0.0000000  -0.6279705), wk =   0.0740741
        k(    9) = (   0.3333333   0.3333333   0.0000000), wk =   0.0740741
        k(   10) = (   0.3333333   0.3333333   0.6279705), wk =   0.0740741
        k(   11) = (   0.3333333   0.3333333  -0.6279705), wk =   0.0740741
        k(   12) = (   0.3333333  -0.3333333   0.0000000), wk =   0.0740741
        k(   13) = (   0.3333333  -0.3333333   0.6279705), wk =   0.0740741
        k(   14) = (   0.3333333  -0.3333333  -0.6279705), wk =   0.0740741

     Check: negative core charge=   -0.000010
     Generating pointlists ...
     new r_m :   0.1076 (alat units)  1.7517 (a.u.) for type    1

     Initial potential from superposition of free atoms

     starting charge  447.98773, renormalised to  448.00000
     Starting wfcs are  364 randomized atomic wfcs
     Checking if some PAW data can be deallocated...

     Self-consistent Calculation

     iteration #  1     ecut=    90.00 Ry     beta= 0.20
     Davidson diagonalization with overlap
     ethr =  1.00E-02,  avg # of iterations =  2.0

     Threshold (ethr) on eigenvalues was too large:
     Diagonalizing with lowered threshold

     Davidson diagonalization with overlap
     ethr =  3.64E-04,  avg # of iterations =  4.0

     total energy              =   -9218.52999521 Ry
     estimated scf accuracy    <       1.74484634 Ry

     total magnetization       =    73.19 Bohr mag/cell
     absolute magnetization    =    73.80 Bohr mag/cell

[...]

     negative rho (up, down):  0.000E+00 1.542E-05

[...]

     Magnetic moment per site:
     atom:    1    charge:   13.9263    magn:    2.1984    constr:    0.0000
     atom:    2    charge:   13.9263    magn:    2.1984    constr:    0.0000
     atom:    3    charge:   13.9263    magn:    2.1984    constr:    0.0000
     atom:    4    charge:   13.9264    magn:    2.1984    constr:    0.0000
     atom:    5    charge:   13.9263    magn:    2.1984    constr:    0.0000
     atom:    6    charge:   13.9263    magn:    2.1984    constr:    0.0000
     atom:    7    charge:   13.9264    magn:    2.1984    constr:    0.0000
     atom:    8    charge:   13.9263    magn:    2.1984    constr:    0.0000
     atom:    9    charge:   13.8771    magn:    2.4242    constr:    0.0000
     atom:   10    charge:   13.8771    magn:    2.4242    constr:    0.0000
     atom:   11    charge:   13.8771    magn:    2.4242    constr:    0.0000
     atom:   12    charge:   13.8771    magn:    2.4242    constr:    0.0000
     atom:   13    charge:   13.8771    magn:    2.4242    constr:    0.0000
     atom:   14    charge:   13.8771    magn:    2.4242    constr:    0.0000
     atom:   15    charge:   13.8771    magn:    2.4242    constr:    0.0000
     atom:   16    charge:   13.8771    magn:    2.4242    constr:    0.0000
     atom:   17    charge:   13.8522    magn:    2.5286    constr:    0.0000
     atom:   18    charge:   13.8522    magn:    2.5286    constr:    0.0000
     atom:   19    charge:   13.8521    magn:    2.5286    constr:    0.0000
     atom:   20    charge:   13.8521    magn:    2.5286    constr:    0.0000
     atom:   21    charge:   13.8522    magn:    2.5286    constr:    0.0000
     atom:   22    charge:   13.8521    magn:    2.5286    constr:    0.0000
     atom:   23    charge:   13.8522    magn:    2.5286    constr:    0.0000
     atom:   24    charge:   13.8522    magn:    2.5286    constr:    0.0000
     atom:   25    charge:   13.8530    magn:    2.5993    constr:    0.0000
     atom:   26    charge:   13.8530    magn:    2.5993    constr:    0.0000
     atom:   27    charge:   13.8530    magn:    2.5993    constr:    0.0000
     atom:   28    charge:   13.8530    magn:    2.5993    constr:    0.0000

     End of self-consistent calculation

 ------ SPIN UP ------------

          k = 0.0000 0.0000 0.0000 ( 32999 PWs)   bands (ev):

   -71.3333 -71.3308 -71.2986 -71.2986 -71.2867 -71.2834 -71.2724 -71.2692
   -71.2471 -71.2471 -71.2429 -71.2429 -71.2207 -71.2187 -71.2165 -71.2165
   -71.1989 -71.1989 -71.1977 -71.1947 -71.0820 -71.0775 -71.0775 -71.0743
   -71.0013 -71.0012 -71.0012 -71.0012 -37.5175 -37.5074 -37.5024 -37.5024
   -37.4743 -37.4640 -37.4584 -37.4570 -37.4511 -37.4334 -37.4274 -37.4274
   -37.4208 -37.4208 -37.4082 -37.4082 -37.3884 -37.3816 -37.3816 -37.3727
   -37.3727 -37.3718 -37.3644 -37.3601 -37.3561 -37.3542 -37.3263 -37.3204
   -37.3199 -37.3179 -37.3171 -37.3171 -37.3147 -37.2970 -37.2970 -37.2947
   -37.2945 -37.2847 -37.2698 -37.2698 -37.2673 -37.2543 -37.2543 -37.2524
   -37.2515 -37.2493 -37.2392 -37.2391 -37.2324 -37.2314 -37.2312 -37.2176
   -37.2124 -37.2124 -37.2027 -37.2027 -37.1633 -37.1590 -37.1437 -37.1437
   -37.1412 -37.1069 -37.1069 -37.0933 -37.0869 -37.0869 -37.0859 -37.0859
   -37.0810 -37.0810 -37.0635 -37.0608 -37.0463 -37.0296 -37.0296 -37.0204
   -37.0061 -36.9936 -36.9936 -36.9894 -36.7987 -36.7957 -36.7957 -36.7928
     8.6521  10.4468  10.4468  10.6384  11.1354  11.7240  11.8246  11.9862
    11.9862  12.2049  12.2351  12.2351  12.2720  12.3752  12.4780  12.4780
    12.4895  12.7418  12.7935  12.8441  12.8441  12.8986  12.8986  12.9163
    13.0302  13.0982  13.2067  13.2559  13.2559  13.2657  13.4170  13.4366
    13.4366  13.4424  13.4424  13.5036  13.5782  13.5969  13.6402  13.6895
    13.7175  13.7175  13.7427  13.7723  13.7723  13.7810  13.7903  13.7903
[...]
               b(2) = (  0.000001  1.001085  0.000000 )
               b(3) = (  0.000000  0.000000  1.878421 )

     PseudoPot. # 1 for Fe read from file:
     /opt/QEpot/SSSP_precision_pseudos/Fe.pbe-spn-kjpaw_psl.0.2.1.UPF
     MD5 check sum: e86618425769142926afa95317d90200
     Pseudo is Projector augmented-wave + core cor, Zval = 16.0
     Generated using "atomic" code by A. Dal Corso  v.5.0.99 svn rev. 10869
     Shape of augmentation charge: PSQ
     Using radial grid of 1191 points,  6 beta functions with:
                l(1) =   0
                l(2) =   0
                l(3) =   1
                l(4) =   1
                l(5) =   2
                l(6) =   2
     Q(r) pseudized with 0 coefficients

     atomic species   valence    mass     pseudopotential
        Fe            16.00    55.84500     Fe( 1.00)

     Starting magnetic structure
     atomic species   magnetization
        Fe           0.172

     No symmetry found

   Cartesian axes

     site n.     atom                  positions (alat units)
         1           Fe  tau(   1) = (   0.2084606   0.2084622   0.1351026  )
         2           Fe  tau(   2) = (   0.7904550   0.7904537   0.1351024  )
         3           Fe  tau(   3) = (   0.7079223   0.2909951   0.4012833  )
         4           Fe  tau(   4) = (   0.2909952   0.7079187   0.4012834  )
         5           Fe  tau(   5) = (   0.7904550   0.7904536   0.3972596  )
         6           Fe  tau(   6) = (   0.2084606   0.2084622   0.3972595  )
         7           Fe  tau(   7) = (   0.2909952   0.7079186   0.1310786  )
         8           Fe  tau(   8) = (   0.7079223   0.2909950   0.1310786  )
         9           Fe  tau(   9) = (   0.9610183   0.2333985  -0.0000001  )
        10           Fe  tau(  10) = (   0.0378989   0.7655183   0.0000001  )
        11           Fe  tau(  11) = (   0.5373574   0.7328499   0.2661808  )
        12           Fe  tau(  12) = (   0.4615595   0.2660666   0.2661811  )
        13           Fe  tau(  13) = (   0.2333917   0.9610187   0.0000000  )
        14           Fe  tau(  14) = (   0.7655272   0.0378988  -0.0000000  )
        15           Fe  tau(  15) = (   0.7328574   0.5373560   0.2661808  )
        16           Fe  tau(  16) = (   0.2660569   0.4615571   0.2661811  )
        17           Fe  tau(  17) = (   0.8665045   0.5221381  -0.0000001  )
        18           Fe  tau(  18) = (   0.1324082   0.4767766   0.0000000  )
        19           Fe  tau(  19) = (   0.6318724   0.0226813   0.2661810  )
        20           Fe  tau(  20) = (   0.3670452   0.9762368   0.2661810  )
        21           Fe  tau(  21) = (   0.5221392   0.8665058  -0.0000001  )
        22           Fe  tau(  22) = (   0.4767779   0.1324152   0.0000000  )
        23           Fe  tau(  23) = (   0.0226798   0.6318682   0.2661810  )
        24           Fe  tau(  24) = (   0.9762359   0.3670464   0.2661809  )
        25           Fe  tau(  25) = (   0.5962719   0.5962685  -0.0000003  )
        26           Fe  tau(  26) = (   0.4026404   0.4026484   0.0000002  )
        27           Fe  tau(  27) = (   0.0968106   0.9021015   0.2661811  )
        28           Fe  tau(  28) = (   0.9021088   0.0968153   0.2661809  )

     number of k points=    14  Gaussian smearing, width (Ry)=  0.0100
                       cart. coord. in units 2pi/alat
        k(    1) = (   0.0000000   0.0000000   0.0000000), wk =   0.0370370
        k(    2) = (   0.0000000   0.0000000   0.6261404), wk =   0.0740741
        k(    3) = (   0.0000002   0.3336949   0.0000000), wk =   0.0740741
        k(    4) = (   0.0000002   0.3336949   0.6261404), wk =   0.0740741
        k(    5) = (   0.0000002   0.3336948  -0.6261404), wk =   0.0740741
        k(    6) = (   0.3336948   0.0000002   0.0000000), wk =   0.0740741
        k(    7) = (   0.3336948   0.0000002   0.6261404), wk =   0.0740741
        k(    8) = (   0.3336948   0.0000002  -0.6261404), wk =   0.0740741
        k(    9) = (   0.3336950   0.3336950   0.0000000), wk =   0.0740741
        k(   10) = (   0.3336950   0.3336950   0.6261404), wk =   0.0740741
        k(   11) = (   0.3336949   0.3336950  -0.6261404), wk =   0.0740741
        k(   12) = (   0.3336946  -0.3336947  -0.0000000), wk =   0.0740741
        k(   13) = (   0.3336946  -0.3336947   0.6261404), wk =   0.0740741
        k(   14) = (   0.3336946  -0.3336947  -0.6261404), wk =   0.0740741

     Check: negative core charge=   -0.000010
     Generating pointlists ...

     Initial potential from superposition of free atoms

     starting charge  447.98773, renormalised to  448.00000
     Starting wfcs are  364 randomized atomic wfcs
     Checking if some PAW data can be deallocated...

     Self-consistent Calculation

     iteration #  1     ecut=    90.00 Ry     beta= 0.20
     Davidson diagonalization with overlap
     c_bands:  2 eigenvalues not converged
     c_bands:  3 eigenvalues not converged
     c_bands:  2 eigenvalues not converged
     c_bands:  1 eigenvalues not converged
     c_bands:  1 eigenvalues not converged
     c_bands:  2 eigenvalues not converged
     c_bands:  1 eigenvalues not converged
     c_bands:  1 eigenvalues not converged
     c_bands:  2 eigenvalues not converged
     c_bands:  2 eigenvalues not converged
     c_bands:  1 eigenvalues not converged
     c_bands:  1 eigenvalues not converged
     c_bands:  1 eigenvalues not converged
     c_bands:  1 eigenvalues not converged
     ethr =  1.00E-06,  avg # of iterations = 18.4

[...]

     total energy              =   -9219.24340053 Ry
     estimated scf accuracy    <          1.1E-10 Ry

[...]

     iteration # 68     ecut=    90.00 Ry     beta= 0.20
     Davidson diagonalization with overlap
     ethr =  1.00E-13,  avg # of iterations =  1.0

[...]

     Magnetic moment per site:
     atom:    1    charge:   13.9170    magn:    2.2042    constr:    0.0000
     atom:    2    charge:   13.9170    magn:    2.2042    constr:    0.0000
     atom:    3    charge:   13.9170    magn:    2.2042    constr:    0.0000
     atom:    4    charge:   13.9170    magn:    2.2043    constr:    0.0000
     atom:    5    charge:   13.9170    magn:    2.2042    constr:    0.0000
     atom:    6    charge:   13.9170    magn:    2.2042    constr:    0.0000
     atom:    7    charge:   13.9170    magn:    2.2043    constr:    0.0000
     atom:    8    charge:   13.9170    magn:    2.2042    constr:    0.0000
     atom:    9    charge:   13.8841    magn:    2.3714    constr:    0.0000
     atom:   10    charge:   13.8841    magn:    2.3715    constr:    0.0000
     atom:   11    charge:   13.8840    magn:    2.3716    constr:    0.0000
     atom:   12    charge:   13.8840    magn:    2.3716    constr:    0.0000
     atom:   13    charge:   13.8840    magn:    2.3716    constr:    0.0000
     atom:   14    charge:   13.8840    magn:    2.3715    constr:    0.0000
     atom:   15    charge:   13.8841    magn:    2.3715    constr:    0.0000
     atom:   16    charge:   13.8841    magn:    2.3715    constr:    0.0000
     atom:   17    charge:   13.8580    magn:    2.4974    constr:    0.0000
     atom:   18    charge:   13.8580    magn:    2.4974    constr:    0.0000
     atom:   19    charge:   13.8580    magn:    2.4975    constr:    0.0000
     atom:   20    charge:   13.8580    magn:    2.4975    constr:    0.0000
     atom:   21    charge:   13.8580    magn:    2.4975    constr:    0.0000
     atom:   22    charge:   13.8580    magn:    2.4975    constr:    0.0000
     atom:   23    charge:   13.8580    magn:    2.4974    constr:    0.0000
     atom:   24    charge:   13.8580    magn:    2.4974    constr:    0.0000
     atom:   25    charge:   13.8434    magn:    2.6098    constr:    0.0000
     atom:   26    charge:   13.8434    magn:    2.6098    constr:    0.0000
     atom:   27    charge:   13.8434    magn:    2.6098    constr:    0.0000
     atom:   28    charge:   13.8434    magn:    2.6098    constr:    0.0000

     End of self-consistent calculation

 ------ SPIN UP ------------

[...]

 ------ SPIN DOWN ----------

[...]

          k = 0.3337-0.3337-0.6261 ( 33094 PWs)   bands (ev):

   -68.4648 -68.4622 -68.4619 -68.4597 -68.4178 -68.4163 -68.4160 -68.4150
   -68.3617 -68.3617 -68.3560 -68.3556 -68.3378 -68.3364 -68.3336 -68.3333
   -68.2907 -68.2893 -68.2878 -68.2862 -68.2616 -68.2602 -68.2525 -68.2511
   -68.2328 -68.2323 -68.2096 -68.2096 -34.8864 -34.8705 -34.8669 -34.8524
   -34.7080 -34.7054 -34.6775 -34.6697 -34.6514 -34.6480 -34.6446 -34.6407
   -34.6332 -34.6213 -34.5976 -34.5902 -34.5838 -34.5822 -34.5790 -34.5703
   -34.5561 -34.5527 -34.5470 -34.5443 -34.5376 -34.5238 -34.5176 -34.5152
   -34.5143 -34.4959 -34.4878 -34.4793 -34.4783 -34.4710 -34.4709 -34.4667
   -34.4612 -34.4559 -34.4428 -34.4408 -34.4297 -34.4255 -34.4212 -34.4163
   -34.4058 -34.4008 -34.3966 -34.3947 -34.3910 -34.3812 -34.3776 -34.3760
   -34.3729 -34.3711 -34.3667 -34.3653 -34.3615 -34.3572 -34.3533 -34.3515
   -34.3511 -34.3434 -34.3395 -34.3360 -34.3323 -34.3313 -34.3272 -34.3261
   -34.3252 -34.3240 -34.3021 -34.3011 -34.2942 -34.2916 -34.2889 -34.2838
   -34.2782 -34.2737 -34.2718 -34.2435 -34.2427 -34.2185 -34.2081 -34.2035
    10.1310  10.6638  10.9344  11.4235  12.2121  12.5488  12.7834  12.8068
    12.9793  13.1138  13.2722  13.2861  13.6260  13.7243  13.8377  13.8571
    13.9713  14.0083  14.0894  14.1222  14.1548  14.2376  14.4003  14.4870
    14.5277  14.5948  14.6850  14.7010  14.8976  14.9943  15.0820  15.1663
    15.2022  15.2750  15.3302  15.3347  15.3760  15.4166  15.4297  15.4629
    15.4780  15.4816  15.5111  15.5386  15.5503  15.5776  15.6194  15.6413
    15.6939  15.7093  15.7330  15.7433  15.7616  15.7672  15.7890  15.8386
    15.8712  15.9137  15.9167  15.9618  16.0328  16.0417  16.0849  16.1106
    16.1315  16.1501  16.1594  16.1919  16.2374  16.2967  16.3716  16.4159
    16.4465  16.4706  16.6235  16.6746  16.6996  16.7122  16.8529  16.9163
    17.0189  17.1471  17.2146  17.2403  17.3040  17.4222  17.4266  17.4981
    17.5065  17.5705  17.6158  17.6624  17.7083  17.7551  17.8478  17.8859
    17.9481  18.0031  18.0793  18.1179  18.1262  18.1539  18.1864  18.1993
    18.2386  18.2740  18.2929  18.3198  18.3438  18.3731  18.3831  18.4143
    18.4634  18.4995  18.5326  18.5356  18.5584  18.5919  18.6167  18.6699
    18.6710  18.6882  18.7120  18.7413  18.7467  18.7957  18.8436  18.8469
    18.8638  18.9006  18.9079  18.9708  19.0072  19.0420  19.0534  19.0708
    19.0802  19.1420  19.1497  19.1862  19.1944  19.2504  19.2611  19.2798
    19.2965  19.3150  19.3180  19.4322  19.4408  19.4995  19.6030  19.7451
    20.1300  20.3063  20.3966  20.4486  20.6335

     the Fermi energy is    16.8532 ev

!    total energy              =   -9219.24340054 Ry

     total all-electron energy =    -71275.546395 Ry
     estimated scf accuracy    <          4.7E-11 Ry
     smearing contrib. (-TS)   =      -0.01784614 Ry
     internal energy E=F+TS    =   -9219.22555441 Ry

     The total energy is F=E-TS. E is the sum of the following terms:
     one-electron contribution =   -3371.62434202 Ry
     hartree contribution      =    1959.80090644 Ry
     xc contribution           =    -975.17141160 Ry
     ewald contribution        =   -4699.98942607 Ry
     one-center paw contrib.   =   -2132.24128116 Ry

     total magnetization       =    66.77 Bohr mag/cell
     absolute magnetization    =    70.24 Bohr mag/cell

     convergence has been achieved in  68 iterations

     negative rho (up, down):  0.000E+00 6.537E-04

     Forces acting on atoms (cartesian axes, Ry/au):

     atom    1 type  1   force =     0.00000749    0.00000380    0.00003213
     atom    2 type  1   force =    -0.00000850   -0.00000598    0.00003308
     atom    3 type  1   force =     0.00000468   -0.00000460    0.00003385
     atom    4 type  1   force =    -0.00000246    0.00000980    0.00003365
     atom    5 type  1   force =    -0.00000846   -0.00000591   -0.00003321
     atom    6 type  1   force =     0.00000747    0.00000377   -0.00003212
     atom    7 type  1   force =    -0.00000251    0.00000989   -0.00003359
     atom    8 type  1   force =     0.00000464   -0.00000453   -0.00003393
     atom    9 type  1   force =     0.00003445    0.00001943    0.00000005
     atom   10 type  1   force =    -0.00003781   -0.00002115   -0.00000004
     atom   11 type  1   force =    -0.00003549    0.00002958    0.00000006
     atom   12 type  1   force =     0.00003669   -0.00002704    0.00000000
     atom   13 type  1   force =     0.00003025    0.00003325   -0.00000002
     atom   14 type  1   force =    -0.00003103   -0.00003717   -0.00000001
     atom   15 type  1   force =     0.00001721   -0.00003492    0.00000004
     atom   16 type  1   force =    -0.00001733    0.00003940   -0.00000007
     atom   17 type  1   force =     0.00000918    0.00005841    0.00000003
     atom   18 type  1   force =    -0.00001040   -0.00005749   -0.00000001
     atom   19 type  1   force =    -0.00001387    0.00005693   -0.00000002
     atom   20 type  1   force =     0.00001577   -0.00006056    0.00000003
     atom   21 type  1   force =     0.00005877    0.00001022    0.00000004
     atom   22 type  1   force =    -0.00005762   -0.00001721    0.00000003
     atom   23 type  1   force =     0.00005684   -0.00001014   -0.00000003
     atom   24 type  1   force =    -0.00006099    0.00001126    0.00000008
     atom   25 type  1   force =    -0.00000858   -0.00000318    0.00000006
     atom   26 type  1   force =     0.00001382    0.00000469   -0.00000004
     atom   27 type  1   force =    -0.00000416    0.00001079   -0.00000002
     atom   28 type  1   force =     0.00000194   -0.00001134    0.00000001

     Total force =     0.000232     Total SCF correction =     0.000042
     SCF correction compared to forces is large: reduce conv_thr to get better values

     Computing stress (Cartesian axis) and pressure

     negative rho (up, down):  0.000E+00 6.537E-04
          total   stress  (Ry/bohr**3)                   (kbar)     P=        0.02
  -0.00000036   0.00000000  -0.00000000           -0.05        0.00       -0.00
   0.00000000  -0.00000036  -0.00000000            0.00       -0.05       -0.00
  -0.00000000  -0.00000000   0.00000111           -0.00       -0.00        0.16

     General routines

     Parallel routines

   This run was terminated on:   0:30:18  29May2022

   JOB DONE.
Note: The following floating-point exceptions are signalling: IEEE_UNDERFLOW_FLAG IEEE_DENORMAL
Note: The following floating-point exceptions are signalling: IEEE_UNDERFLOW_FLAG IEEE_DENORMAL
Note: The following floating-point exceptions are signalling: IEEE_UNDERFLOW_FLAG IEEE_DENORMAL
Note: The following floating-point exceptions are signalling: IEEE_UNDERFLOW_FLAG IEEE_DENORMAL
Note: The following floating-point exceptions are signalling: IEEE_UNDERFLOW_FLAG IEEE_DENORMAL
Note: The following floating-point exceptions are signalling: IEEE_UNDERFLOW_FLAG IEEE_DENORMAL
Note: The following floating-point exceptions are signalling: IEEE_UNDERFLOW_FLAG IEEE_DENORMAL
Note: The following floating-point exceptions are signalling: IEEE_UNDERFLOW_FLAG IEEE_DENORMAL
Note: The following floating-point exceptions are signalling: IEEE_UNDERFLOW_FLAG IEEE_DENORMAL
Note: The following floating-point exceptions are signalling: IEEE_INVALID_FLAG IEEE_UNDERFLOW_FLAG IEEE_DENORMAL
Note: The following floating-point exceptions are signalling: IEEE_UNDERFLOW_FLAG IEEE_DENORMAL
Note: The following floating-point exceptions are signalling: IEEE_UNDERFLOW_FLAG IEEE_DENORMAL
Note: The following floating-point exceptions are signalling: IEEE_UNDERFLOW_FLAG IEEE_DENORMAL
Note: The following floating-point exceptions are signalling: IEEE_UNDERFLOW_FLAG IEEE_DENORMAL
Note: The following floating-point exceptions are signalling: IEEE_UNDERFLOW_FLAG IEEE_DENORMAL
Note: The following floating-point exceptions are signalling: IEEE_UNDERFLOW_FLAG IEEE_DENORMAL
Note: The following floating-point exceptions are signalling: IEEE_UNDERFLOW_FLAG IEEE_DENORMAL
Note: The following floating-point exceptions are signalling: IEEE_UNDERFLOW_FLAG IEEE_DENORMAL
Note: The following floating-point exceptions are signalling: IEEE_UNDERFLOW_FLAG IEEE_DENORMAL
Note: The following floating-point exceptions are signalling: IEEE_UNDERFLOW_FLAG IEEE_DENORMAL
Note: The following floating-point exceptions are signalling: IEEE_UNDERFLOW_FLAG IEEE_DENORMAL
Note: The following floating-point exceptions are signalling: IEEE_UNDERFLOW_FLAG IEEE_DENORMAL
Note: The following floating-point exceptions are signalling: IEEE_INVALID_FLAG IEEE_UNDERFLOW_FLAG IEEE_DENORMAL
Note: The following floating-point exceptions are signalling: IEEE_INVALID_FLAG IEEE_UNDERFLOW_FLAG IEEE_DENORMAL