     Program PWSCF v.6.7MaX starts on 19Apr2022 at 16:47:20

     R & G space division:  proc/nbgrp/npool/nimage =      16
     Reading input from Opt-fcc-Al.in

     Current dimensions of program PWSCF are:
     Max number of different atomic species (ntypx) = 10
     Max number of k-points (npk) =  40000
     Max angular momentum in pseudopotentials (lmaxx) =  3
     file Al.pbe-n-kjpaw_psl.1.0.0.UPF: wavefunction(s)  3S 3P renormalized

     Subspace diagonalization in iterative solution of the eigenvalue problem:
     a serial algorithm will be used

     Found symmetry operation: I + (  0.0000  0.5000 -0.5000)
     This is a supercell, fractional translations are disabled

     bravais-lattice index     =            0
     lattice parameter (alat)  =       7.6458  a.u.
     unit-cell volume          =     446.9657 (a.u.)^3
     number of atoms/cell      =            4
     number of atomic types    =            1
     number of electrons       =        12.00
     number of Kohn-Sham states=           10
     kinetic-energy cutoff     =      30.0000  Ry
     charge density cutoff     =     240.0000  Ry
     scf convergence threshold =      1.0E-08
     mixing beta               =       0.2000
     number of iterations used =            8  plain     mixing
     energy convergence thresh.=      1.0E-05
     force convergence thresh. =      1.0E-04
     press convergence thresh. =      1.0E-01
     Exchange-correlation= SLA  PW   PBX  PBC
                           (   1   4   3   4   0   0   0)
     nstep                     =          100

     celldm(1)=   7.645832  celldm(2)=   0.000000  celldm(3)=   0.000000
     celldm(4)=   0.000000  celldm(5)=   0.000000  celldm(6)=   0.000000

     crystal axes: (cart. coord. in units of alat)
               a(1) = (   1.000000   0.000000   0.000000 )
               a(2) = (   0.000000   1.000000   0.000000 )
               a(3) = (   0.000000   0.000000   1.000000 )

     reciprocal axes: (cart. coord. in units 2 pi/alat)
               b(1) = (  1.000000  0.000000  0.000000 )
               b(2) = (  0.000000  1.000000  0.000000 )
               b(3) = (  0.000000  0.000000  1.000000 )

     PseudoPot. # 1 for Al read from file:
     /opt/QEpot/SSSP_precision_pseudos/Al.pbe-n-kjpaw_psl.1.0.0.UPF
     MD5 check sum: cfc449ca30b5f3223ec38ddd88ac046d
     Pseudo is Projector augmented-wave + core cor, Zval =  3.0
     Generated using "atomic" code by A. Dal Corso  v.5.1
     Shape of augmentation charge: PSQ
     Using radial grid of 1135 points,  6 beta functions with:
                l(1) =   0
                l(2) =   0
                l(3) =   1
                l(4) =   1
                l(5) =   2
                l(6) =   2
     Q(r) pseudized with 0 coefficients

     atomic species   valence    mass     pseudopotential
        Al             3.00    26.98154     Al( 1.00)

     Starting magnetic structure
     atomic species   magnetization
        Al           0.200

     No symmetry found

   Cartesian axes

     site n.     atom                  positions (alat units)
         1           Al  tau(   1) = (   0.5000000   0.5000000   0.0000000  )
         2           Al  tau(   2) = (   0.5000000   0.0000000   0.5000000  )
         3           Al  tau(   3) = (   0.0000000   0.5000000   0.5000000  )
         4           Al  tau(   4) = (   0.0000000   0.0000000   0.0000000  )

     number of k points=  4631  Gaussian smearing, width (Ry)=  0.0100

     Number of k-points >= 100: set verbosity='high' to print them.

     Initial potential from superposition of free atoms

     starting charge   11.99084, renormalised to   12.00000
     Starting wfcs are   16 randomized atomic wfcs
     Checking if some PAW data can be deallocated...

     Self-consistent Calculation

     iteration #  1     ecut=    30.00 Ry     beta= 0.20
     Davidson diagonalization with overlap
     ethr =  1.00E-02,  avg # of iterations =  3.6

     Threshold (ethr) on eigenvalues was too large:
     Diagonalizing with lowered threshold

     Davidson diagonalization with overlap
     ethr =  1.90E-04,  avg # of iterations =  4.8

     total energy              =    -157.99911141 Ry
     estimated scf accuracy    <       0.02367586 Ry

     total magnetization       =     0.58 Bohr mag/cell
     absolute magnetization    =     0.58 Bohr mag/cell

[...]

     iteration #  4     ecut=    30.00 Ry     beta= 0.20
     Davidson diagonalization with overlap
     c_bands:  1 eigenvalues not converged
     c_bands:  1 eigenvalues not converged
     c_bands:  2 eigenvalues not converged
     c_bands:  2 eigenvalues not converged
     c_bands:  1 eigenvalues not converged
     c_bands:  1 eigenvalues not converged
     c_bands:  1 eigenvalues not converged
     c_bands:  1 eigenvalues not converged
     c_bands:  1 eigenvalues not converged
     c_bands:  1 eigenvalues not converged
     c_bands:  1 eigenvalues not converged
     c_bands:  2 eigenvalues not converged
     c_bands:  1 eigenvalues not converged
     c_bands:  2 eigenvalues not converged
     c_bands:  1 eigenvalues not converged
     c_bands:  1 eigenvalues not converged
     c_bands:  1 eigenvalues not converged
     c_bands:  1 eigenvalues not converged
     c_bands:  1 eigenvalues not converged
     c_bands:  1 eigenvalues not converged
     c_bands:  1 eigenvalues not converged
     c_bands:  1 eigenvalues not converged
     c_bands:  1 eigenvalues not converged
     c_bands:  1 eigenvalues not converged
     c_bands:  1 eigenvalues not converged
     c_bands:  1 eigenvalues not converged
     c_bands:  1 eigenvalues not converged
     c_bands:  1 eigenvalues not converged
     c_bands:  1 eigenvalues not converged
     c_bands:  2 eigenvalues not converged
     c_bands:  1 eigenvalues not converged
     c_bands:  1 eigenvalues not converged
     c_bands:  1 eigenvalues not converged
     c_bands:  1 eigenvalues not converged
     c_bands:  1 eigenvalues not converged
     c_bands:  1 eigenvalues not converged
     c_bands:  1 eigenvalues not converged
     c_bands:  2 eigenvalues not converged
     c_bands:  1 eigenvalues not converged
     c_bands:  1 eigenvalues not converged
     c_bands:  1 eigenvalues not converged
     c_bands:  1 eigenvalues not converged
     c_bands:  1 eigenvalues not converged
     c_bands:  1 eigenvalues not converged
     c_bands:  1 eigenvalues not converged
     c_bands:  2 eigenvalues not converged
     c_bands:  2 eigenvalues not converged
     c_bands:  2 eigenvalues not converged
     c_bands:  1 eigenvalues not converged
     c_bands:  1 eigenvalues not converged
     c_bands:  2 eigenvalues not converged
     c_bands:  1 eigenvalues not converged
     c_bands:  1 eigenvalues not converged
     c_bands:  1 eigenvalues not converged
     c_bands:  1 eigenvalues not converged
     c_bands:  1 eigenvalues not converged
     c_bands:  1 eigenvalues not converged
     c_bands:  1 eigenvalues not converged
     c_bands:  1 eigenvalues not converged
     c_bands:  1 eigenvalues not converged
[...]
     c_bands:  1 eigenvalues not converged
     c_bands:  1 eigenvalues not converged
     c_bands:  1 eigenvalues not converged
     c_bands:  1 eigenvalues not converged
     c_bands:  1 eigenvalues not converged
     c_bands:  1 eigenvalues not converged
     c_bands:  1 eigenvalues not converged
     c_bands:  2 eigenvalues not converged
     c_bands:  1 eigenvalues not converged
     c_bands:  1 eigenvalues not converged
     c_bands:  1 eigenvalues not converged
     c_bands:  1 eigenvalues not converged
     c_bands:  2 eigenvalues not converged
     c_bands:  2 eigenvalues not converged
     c_bands:  1 eigenvalues not converged
     ethr =  1.17E-06,  avg # of iterations =  7.4

[...]

     Magnetic moment per site:
     atom:    1    charge:    1.7219    magn:    0.0000    constr:    0.0000
     atom:    2    charge:    1.7219    magn:   -0.0000    constr:    0.0000
     atom:    3    charge:    1.7218    magn:   -0.0000    constr:    0.0000
     atom:    4    charge:    1.7219    magn:   -0.0000    constr:    0.0000

     End of self-consistent calculation

     Number of k-points >= 100: set verbosity='high' to print the bands.

     the Fermi energy is     7.8718 ev

!    total energy              =    -158.01140590 Ry

     total all-electron energy =     -1942.582532 Ry
     estimated scf accuracy    <          4.4E-09 Ry
     smearing contrib. (-TS)   =      -0.00117528 Ry
     internal energy E=F+TS    =    -158.01023062 Ry

     The total energy is F=E-TS. E is the sum of the following terms:
     one-electron contribution =      12.62531618 Ry
     hartree contribution      =       0.02333067 Ry
     xc contribution           =     -10.35505482 Ry
     ewald contribution        =     -21.58758352 Ry
     one-center paw contrib.   =    -138.71623914 Ry

[...]

     convergence has been achieved in   9 iterations

     Forces acting on atoms (cartesian axes, Ry/au):

     atom    1 type  1   force =     0.00000080    0.00000052   -0.00000044
     atom    2 type  1   force =    -0.00000136    0.00000092    0.00000023
     atom    3 type  1   force =    -0.00000091   -0.00000015   -0.00000003
     atom    4 type  1   force =     0.00000147   -0.00000130    0.00000024

     Total force =     0.000003     Total SCF correction =     0.000007
     SCF correction compared to forces is large: reduce conv_thr to get better values

     Computing stress (Cartesian axis) and pressure

          total   stress  (Ry/bohr**3)                   (kbar)     P=       -3.48
  -0.00002367   0.00000000   0.00000000           -3.48        0.00        0.00
   0.00000000  -0.00002367   0.00000000            0.00       -3.48        0.00
   0.00000000   0.00000000  -0.00002367            0.00        0.00       -3.48

     BFGS Geometry Optimization
     Energy error            =      0.0E+00
     Gradient error          =      1.5E-06
     Cell gradient error     =      2.4E-05

     number of scf cycles    =   1
     number of bfgs steps    =   0

     enthalpy new            =    -158.0114058977 Ry

     new trust radius        =       0.0025024120 bohr
     new conv_thr            =       0.0000000100 Ry

     new unit-cell volume =    446.17266 a.u.^3 (    66.11597 Ang^3 )
     density =      2.71063 g/cm^3

CELL_PARAMETERS (angstrom)
   4.043605485   0.000000000   0.000000000
   0.000000000   4.043605583   0.000000000
   0.000000000   0.000000000   4.043605613

ATOMIC_POSITIONS (angstrom)
Al            2.0218031635        2.0218030674       -0.0000002326
Al            2.0218020237        0.0000004890        2.0218029264
Al           -0.0000004820        2.0218027124        2.0218027920
Al            0.0000007796       -0.0000006860        0.0000001275

     Writing output data file ./pwscf.save/
     NEW-OLD atomic charge density approx. for the potential
     extrapolated charge   11.97869, renormalised to   12.00000
     Generating pointlists ...

[...]

     Davidson diagonalization with overlap
     ethr =  1.57E-09,  avg # of iterations =  4.6

[...]

     Energy error            =      1.5E-05
     Gradient error          =      4.5E-07
     Cell gradient error     =      1.4E-05

     number of scf cycles    =   2
     number of bfgs steps    =   1

     enthalpy old            =    -158.0114058977 Ry
     enthalpy new            =    -158.0114210540 Ry

     CASE: enthalpy_new < enthalpy_old

     new trust radius        =       0.0037525072 bohr
     new conv_thr            =            1.0E-10 Ry

     new unit-cell volume =    444.98477 a.u.^3 (    65.93994 Ang^3 )
     density =      2.71786 g/cm^3

[...]

ATOMIC_POSITIONS (angstrom)
Al            2.0200070741        2.0200069983       -0.0000000505
Al            2.0200067086        0.0000001790        2.0200069404
Al           -0.0000002634        2.0200068503        2.0200069095
Al            0.0000001929       -0.0000001834        0.0000000492

     Writing output data file ./pwscf.save/
     NEW-OLD atomic charge density approx. for the potential
     extrapolated charge   11.96799, renormalised to   12.00000
     Generating pointlists ...

[...]

     Threshold (ethr) on eigenvalues was too large:
     Diagonalizing with lowered threshold

     Davidson diagonalization with overlap
     c_bands:  1 eigenvalues not converged
     ethr =  3.49E-09,  avg # of iterations =  4.5

[...]

     Energy error            =      8.9E-06
     Gradient error          =      3.9E-08
     Cell gradient error     =      4.5E-07

     bfgs converged in   3 scf cycles and   2 bfgs steps
     (criteria: energy <  1.0E-05 Ry, force <  1.0E-04Ry/Bohr, cell <  1.0E-01kbar)

     End of BFGS Geometry Optimization

     Final enthalpy =    -158.0114299541 Ry

     File ./pwscf.bfgs deleted, as requested
Begin final coordinates
     new unit-cell volume =    444.98477 a.u.^3 (    65.93994 Ang^3 )
     density =      2.71786 g/cm^3

CELL_PARAMETERS (angstrom)
   4.040013712   0.000000000   0.000000000
   0.000000000   4.040013844   0.000000000
   0.000000000   0.000000000   4.040013849

ATOMIC_POSITIONS (angstrom)
Al            2.0200070741        2.0200069983       -0.0000000505
Al            2.0200067086        0.0000001790        2.0200069404
Al           -0.0000002634        2.0200068503        2.0200069095
Al            0.0000001929       -0.0000001834        0.0000000492
End final coordinates

     Writing output data file ./pwscf.save/

     Final scf calculation at the relaxed structure.
     The G-vectors are recalculated for the final unit cell
     Results may differ from those at the preceding step.

     bravais-lattice index     =            0
     lattice parameter (alat)  =       7.6458  a.u.
     unit-cell volume          =     444.9848 (a.u.)^3
     number of atoms/cell      =            4
     number of atomic types    =            1
     number of electrons       =        12.00
     number of Kohn-Sham states=           10
     kinetic-energy cutoff     =      30.0000  Ry
     charge density cutoff     =     240.0000  Ry
     scf convergence threshold =      1.0E-10
     mixing beta               =       0.2000
     number of iterations used =            8  plain     mixing
     press convergence thresh. =      1.0E-01
     Exchange-correlation= SLA  PW   PBX  PBC
                           (   1   4   3   4   0   0   0)

     celldm(1)=   7.645832  celldm(2)=   0.000000  celldm(3)=   0.000000
     celldm(4)=   0.000000  celldm(5)=   0.000000  celldm(6)=   0.000000

     crystal axes: (cart. coord. in units of alat)
               a(1) = (   0.998520   0.000000   0.000000 )
               a(2) = (   0.000000   0.998520   0.000000 )
               a(3) = (   0.000000   0.000000   0.998520 )

     reciprocal axes: (cart. coord. in units 2 pi/alat)
               b(1) = (  1.001482  0.000000  0.000000 )
               b(2) = (  0.000000  1.001482  0.000000 )
               b(3) = (  0.000000  0.000000  1.001482 )

     PseudoPot. # 1 for Al read from file:
     /opt/QEpot/SSSP_precision_pseudos/Al.pbe-n-kjpaw_psl.1.0.0.UPF
     MD5 check sum: cfc449ca30b5f3223ec38ddd88ac046d
     Pseudo is Projector augmented-wave + core cor, Zval =  3.0
     Generated using "atomic" code by A. Dal Corso  v.5.1
     Shape of augmentation charge: PSQ
     Using radial grid of 1135 points,  6 beta functions with:
                l(1) =   0
                l(2) =   0
                l(3) =   1
                l(4) =   1
                l(5) =   2
                l(6) =   2
     Q(r) pseudized with 0 coefficients

     atomic species   valence    mass     pseudopotential
        Al             3.00    26.98154     Al( 1.00)

     Starting magnetic structure
     atomic species   magnetization
        Al          -0.000

     No symmetry found

   Cartesian axes

     site n.     atom                  positions (alat units)
         1           Al  tau(   1) = (   0.4992603   0.4992603  -0.0000000  )
         2           Al  tau(   2) = (   0.4992602   0.0000000   0.4992602  )
         3           Al  tau(   3) = (  -0.0000001   0.4992602   0.4992602  )
         4           Al  tau(   4) = (   0.0000000  -0.0000000   0.0000000  )

     number of k points=  4631  Gaussian smearing, width (Ry)=  0.0100

     Number of k-points >= 100: set verbosity='high' to print them.

     Initial potential from superposition of free atoms

     starting charge   11.99084, renormalised to   12.00000
     Starting wfcs are   16 randomized atomic wfcs
     Checking if some PAW data can be deallocated...

     Self-consistent Calculation

[...]

     iteration #  8     ecut=    30.00 Ry     beta= 0.20
     Davidson diagonalization with overlap
     ethr =  1.47E-09,  avg # of iterations =  2.0

[...]

     total energy              =    -158.01142934 Ry
     estimated scf accuracy    <          1.0E-09 Ry

[...]

     iteration # 11     ecut=    30.00 Ry     beta= 0.20
     Davidson diagonalization with overlap
     c_bands:  1 eigenvalues not converged
     c_bands:  1 eigenvalues not converged
     c_bands:  1 eigenvalues not converged
     ethr =  8.36E-12,  avg # of iterations =  2.2

     Magnetic moment per site:
     atom:    1    charge:    1.7276    magn:   -0.0000    constr:    0.0000
     atom:    2    charge:    1.7276    magn:   -0.0000    constr:    0.0000
     atom:    3    charge:    1.7276    magn:   -0.0000    constr:    0.0000
     atom:    4    charge:    1.7276    magn:    0.0000    constr:    0.0000

     End of self-consistent calculation

     Number of k-points >= 100: set verbosity='high' to print the bands.

     the Fermi energy is     7.9182 ev

!    total energy              =    -158.01142926 Ry

     total all-electron energy =     -1942.582556 Ry
     estimated scf accuracy    <          9.8E-11 Ry
     smearing contrib. (-TS)   =      -0.00117503 Ry
     internal energy E=F+TS    =    -158.01025423 Ry

     The total energy is F=E-TS. E is the sum of the following terms:
     one-electron contribution =      12.66822663 Ry
     hartree contribution      =       0.02342474 Ry
     xc contribution           =     -10.36459363 Ry
     ewald contribution        =     -21.61957043 Ry
     one-center paw contrib.   =    -138.71774154 Ry

     total magnetization       =    -0.00 Bohr mag/cell
     absolute magnetization    =     0.00 Bohr mag/cell

     convergence has been achieved in  11 iterations

     Forces acting on atoms (cartesian axes, Ry/au):

     atom    1 type  1   force =    -0.00000012   -0.00000006   -0.00000012
     atom    2 type  1   force =    -0.00000002    0.00000002    0.00000004
     atom    3 type  1   force =     0.00000013    0.00000000    0.00000016
     atom    4 type  1   force =     0.00000001    0.00000005   -0.00000007

     Total force =     0.000000     Total SCF correction =     0.000001
     SCF correction compared to forces is large: reduce conv_thr to get better values

     Computing stress (Cartesian axis) and pressure

          total   stress  (Ry/bohr**3)                   (kbar)     P=       -0.07
  -0.00000045  -0.00000000  -0.00000000           -0.07       -0.00       -0.00
  -0.00000000  -0.00000045   0.00000000           -0.00       -0.07        0.00
  -0.00000000   0.00000000  -0.00000045           -0.00        0.00       -0.07

     General routines

     Parallel routines

   This run was terminated on:  17: 8:49  19Apr2022

   JOB DONE.
Note: The following floating-point exceptions are signalling: IEEE_UNDERFLOW_FLAG IEEE_DENORMAL
Note: The following floating-point exceptions are signalling: IEEE_UNDERFLOW_FLAG IEEE_DENORMAL
Note: The following floating-point exceptions are signalling: IEEE_UNDERFLOW_FLAG IEEE_DENORMAL
Note: The following floating-point exceptions are signalling: IEEE_INVALID_FLAG IEEE_UNDERFLOW_FLAG IEEE_DENORMAL
Note: The following floating-point exceptions are signalling: IEEE_UNDERFLOW_FLAG IEEE_DENORMAL
Note: The following floating-point exceptions are signalling: IEEE_UNDERFLOW_FLAG IEEE_DENORMAL
Note: The following floating-point exceptions are signalling: IEEE_UNDERFLOW_FLAG IEEE_DENORMAL
Note: The following floating-point exceptions are signalling: IEEE_UNDERFLOW_FLAG IEEE_DENORMAL
Note: The following floating-point exceptions are signalling: IEEE_INVALID_FLAG IEEE_UNDERFLOW_FLAG IEEE_DENORMAL
Note: The following floating-point exceptions are signalling: IEEE_INVALID_FLAG IEEE_UNDERFLOW_FLAG IEEE_DENORMAL
Note: The following floating-point exceptions are signalling: IEEE_INVALID_FLAG IEEE_UNDERFLOW_FLAG IEEE_DENORMAL
Note: The following floating-point exceptions are signalling: IEEE_INVALID_FLAG IEEE_UNDERFLOW_FLAG IEEE_DENORMAL
Note: The following floating-point exceptions are signalling: IEEE_UNDERFLOW_FLAG IEEE_DENORMAL
Note: The following floating-point exceptions are signalling: IEEE_INVALID_FLAG IEEE_UNDERFLOW_FLAG IEEE_DENORMAL
Note: The following floating-point exceptions are signalling: IEEE_INVALID_FLAG IEEE_UNDERFLOW_FLAG IEEE_DENORMAL
Note: The following floating-point exceptions are signalling: IEEE_UNDERFLOW_FLAG IEEE_DENORMAL