     Program PWSCF v.6.7MaX starts on 16Feb2022 at 17:30:22

     R & G space division:  proc/nbgrp/npool/nimage =      24
     Reading input from /home/kevin/QE_CoCrFeMnNi/CoCrFeMnNi/Opt/binary/Opt-B1-CoFe/Mix/MD/300K_0.0001Gpa-B1-CoFe/300K_0.0001Gpa-B1-CoFe.in

     Current dimensions of program PWSCF are:
     Max number of different atomic species (ntypx) = 10
     Max number of k-points (npk) =  40000
     Max angular momentum in pseudopotentials (lmaxx) =  3

     File ./pwscf.update deleted, as requested

     File ./pwscf.md deleted, as requested
     file Fe.pbe-spn-kjpaw_psl.0.2.1.UPF: wavefunction(s)  3D renormalized

     Subspace diagonalization in iterative solution of the eigenvalue problem:
     a serial algorithm will be used

     Found symmetry operation: I + (  0.0000  0.5000 -0.5000)
     This is a supercell, fractional translations are disabled

     bravais-lattice index     =            0
     lattice parameter (alat)  =       8.6047  a.u.
     unit-cell volume          =     637.0947 (a.u.)^3
     number of atoms/cell      =            8
     number of atomic types    =            2
     number of electrons       =       132.00
     number of Kohn-Sham states=           79
     kinetic-energy cutoff     =      90.0000  Ry
     charge density cutoff     =    1080.0000  Ry
     scf convergence threshold =      1.0E-10
     mixing beta               =       0.2000
     number of iterations used =            4  plain     mixing
     energy convergence thresh.=      0.0E+00
     force convergence thresh. =      0.0E+00
     press convergence thresh. =      0.0E+00
     Exchange-correlation= SLA  PW   PBE  PBE
                           (   1   4   3   4   0   0   0)
     nstep                     =          102

     celldm(1)=   8.604679  celldm(2)=   0.000000  celldm(3)=   0.000000
     celldm(4)=   0.000000  celldm(5)=   0.000000  celldm(6)=   0.000000

     crystal axes: (cart. coord. in units of alat)
               a(1) = (   1.000000   0.000000   0.000000 )
               a(2) = (   0.000000   1.000000   0.000000 )
               a(3) = (   0.000000   0.000000   1.000000 )

     reciprocal axes: (cart. coord. in units 2 pi/alat)
               b(1) = (  1.000000  0.000000  0.000000 )
               b(2) = (  0.000000  1.000000  0.000000 )
               b(3) = (  0.000000  0.000000  1.000000 )

     PseudoPot. # 1 for Fe read from file:
     /opt/QEpot/SSSP_efficiency_pseudos/Fe.pbe-spn-kjpaw_psl.0.2.1.UPF
     MD5 check sum: e86618425769142926afa95317d90200
     Pseudo is Projector augmented-wave + core cor, Zval = 16.0
     Generated using "atomic" code by A. Dal Corso  v.5.0.99 svn rev. 10869
     Shape of augmentation charge: PSQ
     Using radial grid of 1191 points,  6 beta functions with:
                l(1) =   0
                l(2) =   0
                l(3) =   1
                l(4) =   1
                l(5) =   2
                l(6) =   2
     Q(r) pseudized with 0 coefficients

     PseudoPot. # 2 for Co read from file:
     /opt/QEpot/SSSP_efficiency_pseudos/Co_pbe_v1.2.uspp.F.UPF
     MD5 check sum: 5f91765df6ddd3222702df6e7b74a16d
     Pseudo is Ultrasoft + core correction, Zval = 17.0
     Generated by new atomic code, or converted to UPF format
     Using radial grid of  863 points,  6 beta functions with:
                l(1) =   0
                l(2) =   0
                l(3) =   1
                l(4) =   1
                l(5) =   2
                l(6) =   2
     Q(r) pseudized with  8 coefficients,  rinner =    1.200   1.200   1.200
                                                       1.200   1.200

     atomic species   valence    mass     pseudopotential
        Fe            16.00    55.84500     Fe( 1.00)
        Co            17.00    58.93300     Co( 1.00)

      cell mass =  34.88833 AMU

     Starting magnetic structure
     atomic species   magnetization
        Fe           0.200
        Co           0.200

     No symmetry found

   Cartesian axes

     site n.     atom                  positions (alat units)
         1           Fe  tau(   1) = (   0.0000000   0.5000000   0.0000000  )
         2           Co  tau(   2) = (   0.5000000   0.0000000   0.5000000  )
         3           Fe  tau(   3) = (   0.0000000   0.0000000   0.5000000  )
         4           Co  tau(   4) = (   0.5000000   0.5000000   0.0000000  )
         5           Fe  tau(   5) = (   0.5000000   0.0000000   0.0000000  )
         6           Co  tau(   6) = (   0.0000000   0.5000000   0.5000000  )
         7           Fe  tau(   7) = (   0.5000000   0.5000000   0.5000000  )
         8           Co  tau(   8) = (   0.0000000   0.0000000   0.0000000  )

     number of k points=   112  Gaussian smearing, width (Ry)=  0.0100

     Number of k-points >= 100: set verbosity='high' to print them.

     Check: negative core charge=   -0.000013
     Generating pointlists ...
     new r_m :   0.2063 (alat units)  1.7747 (a.u.) for type    1
     new r_m :   0.2063 (alat units)  1.7747 (a.u.) for type    2

     Initial potential from superposition of free atoms

     starting charge  127.99822, renormalised to  132.00000
     Starting wfcs are  104 randomized atomic wfcs
     Checking if some PAW data can be deallocated...

     Self-consistent Calculation

     iteration #  1     ecut=    90.00 Ry     beta= 0.20
     CG style diagonalization
     ethr =  1.00E-02,  avg # of iterations =  2.6

     total energy              =   -2506.78548890 Ry
     estimated scf accuracy    <      20.51430400 Ry

     total magnetization       =    18.67 Bohr mag/cell
     absolute magnetization    =    18.72 Bohr mag/cell

[...]

     negative rho (up, down):  0.000E+00 2.925E-05

[...]

     iteration # 11     ecut=    90.00 Ry     beta= 0.20
     CG style diagonalization
     c_bands:  1 eigenvalues not converged
     c_bands:  1 eigenvalues not converged
     c_bands:  1 eigenvalues not converged
     c_bands:  1 eigenvalues not converged
     c_bands:  1 eigenvalues not converged
     ethr =  6.16E-06,  avg # of iterations =  4.2

[...]

     Magnetic moment per site:
     atom:    1    charge:   14.0226    magn:    2.3767    constr:    0.0000
     atom:    2    charge:   15.2148    magn:    1.4090    constr:    0.0000
     atom:    3    charge:   14.0226    magn:    2.3767    constr:    0.0000
     atom:    4    charge:   15.2148    magn:    1.4090    constr:    0.0000
     atom:    5    charge:   14.0226    magn:    2.3767    constr:    0.0000
     atom:    6    charge:   15.2148    magn:    1.4090    constr:    0.0000
     atom:    7    charge:   14.0226    magn:    2.3767    constr:    0.0000
     atom:    8    charge:   15.2148    magn:    1.4090    constr:    0.0000

     End of self-consistent calculation

     Number of k-points >= 100: set verbosity='high' to print the bands.

     the Fermi energy is    17.3014 ev

!    total energy              =   -2510.59760788 Ry
     estimated scf accuracy    <          2.9E-11 Ry
     smearing contrib. (-TS)   =      -0.00515447 Ry
     internal energy E=F+TS    =   -2510.59245341 Ry

[...]

     convergence has been achieved in 119 iterations

[...]

     Forces acting on atoms (cartesian axes, Ry/au):

     atom    1 type  1   force =     0.00000005   -0.00000000    0.00000001
     atom    2 type  2   force =    -0.00000004   -0.00000000   -0.00000000
     atom    3 type  1   force =     0.00000003   -0.00000000   -0.00000001
     atom    4 type  2   force =    -0.00000004    0.00000001    0.00000000
     atom    5 type  1   force =     0.00000003   -0.00000002   -0.00000001
     atom    6 type  2   force =    -0.00000004    0.00000000    0.00000000
     atom    7 type  1   force =     0.00000003    0.00000001    0.00000001
     atom    8 type  2   force =    -0.00000003    0.00000000   -0.00000000

     Total force =     0.000000     Total SCF correction =     0.000000
     SCF correction compared to forces is large: reduce conv_thr to get better values

     Computing stress (Cartesian axis) and pressure

     negative rho (up, down):  0.000E+00 1.466E-04
          total   stress  (Ry/bohr**3)                   (kbar)     P=      155.93
   0.00106002  -0.00000088   0.00000090          155.93       -0.13        0.13
  -0.00000088   0.00106002   0.00000083           -0.13      155.93        0.12
   0.00000090   0.00000083   0.00106002            0.13        0.12      155.93

     Entering Dynamics;  it =     1   time =  0.00000 pico-seconds

     File pwscf.e deleted, as requested

     File pwscf.eal deleted, as requested

     File pwscf.ave deleted, as requested

     File pwscf.p deleted, as requested

     File pwscf.avec deleted, as requested

     File pwscf.tv deleted, as requested
  new lattice vectors (alat unit) :
   1.000078281  -0.000000788   0.000000009
  -0.000000788   1.000077129   0.000000720
   0.000000009   0.000000720   1.000078580
  new unit-cell volume =    637.2438 (a.u.)^3
  new positions in cryst coord
Fe      -0.000985309   0.500175021  -0.000442451
Co       0.500043357  -0.000045234   0.499797183
Fe       0.000214022  -0.000002300   0.500806947
Co       0.500143285   0.499719880  -0.000473113
Fe       0.500768648  -0.000530936  -0.000561918
Co      -0.000209923   0.500252145   0.500672390
Fe       0.500002639   0.500358214   0.500197422
Co       0.000023280   0.000073208   0.000003539
  new positions in cart coord (alat unit)
Fe      -0.000985780   0.500213600  -0.000442126
Co       0.500082505  -0.000045271   0.499836462
Fe       0.000214043  -0.000001940   0.500846301
Co       0.500182043   0.499758028  -0.000472786
Fe       0.500807849  -0.000531372  -0.000561958
Co      -0.000210329   0.500291090   0.500712093
Fe       0.500041390   0.500396772   0.500237092
Co       0.000023282   0.000073214   0.000003539

     Ekin =     0.01995091 Ry    T =    0.0 K  Etot =    -2510.57765264
     new unit-cell volume =    637.24381 a.u.^3 (    94.42979 Ang^3 )
     density =      8.07344 g/cm^3

CELL_PARAMETERS (angstrom)
   4.553756443  -0.000003588   0.000000041
  -0.000003588   4.553751197   0.000003277
   0.000000041   0.000003277   4.553757805

ATOMIC_POSITIONS (angstrom)
Fe           -0.0044886523        2.2776726044       -0.0020131759
Co            2.2770756805       -0.0002061389        2.2759553438
Fe            0.0009746248       -0.0000088314        2.2805535450
Co            2.2775289139        2.2755982046       -0.0021527816
Fe            2.2803784593       -0.0024195481       -0.0025588196
Co           -0.0009577106        2.2780254480        2.2799424453
Fe            2.2768884647        2.2785066617        2.2777795735
Co            0.0001060120        0.0003333731        0.0000161156

     Writing output data file ./pwscf.save/
     NEW-OLD atomic charge density approx. for the potential

     Check: negative core charge=   -0.000013

     negative rho (up, down):  0.000E+00 1.428E-04
     extrapolated charge  132.02995, renormalised to  132.00000
     Generating pointlists ...

[...]

     Total force =     0.006198     Total SCF correction =     0.000004

[...]

  new lattice vectors (alat unit) :
   1.000273658  -0.000002656  -0.000000076
  -0.000002656   1.000269607   0.000002435
  -0.000000076   0.000002435   1.000274712
  new unit-cell volume =    637.6160 (a.u.)^3
  new positions in cryst coord
Fe      -0.001968800   0.500350009  -0.000882871
Co       0.500086811  -0.000089556   0.499593355
Fe       0.000427707  -0.000004212   0.501612593
Co       0.500284282   0.499439036  -0.000944836
Fe       0.501536157  -0.001061662  -0.001123324
Co      -0.000419279   0.500503718   0.501342624
Fe       0.500004936   0.500715864   0.500393602
Co       0.000048186   0.000146803   0.000008856
  new positions in cart coord (alat unit)
Fe      -0.001970668   0.500484910  -0.000881895
Co       0.500223626  -0.000089692   0.499730561
Fe       0.000427786  -0.000002993   0.501750393
Co       0.500419862   0.499572358  -0.000943917
Fe       0.501673410  -0.001063283  -0.001123673
Co      -0.000420761   0.500639879   0.501481568
Fe       0.500140399   0.500850751   0.500532248
Co       0.000048199   0.000146842   0.000008859

[...]

     negative rho (up, down):  0.000E+00 6.894E-05
     extrapolated charge  132.24807, renormalised to  132.00000
     Generating pointlists ...
     new r_m :   0.2040 (alat units)  1.7551 (a.u.) for type    1
     new r_m :   0.2040 (alat units)  1.7551 (a.u.) for type    2

[...]

     Writing output data file ./pwscf.save/
     NEW-OLD atomic charge density approx. for the potential

     Check: negative core charge=   -0.000018

     negative rho (up, down):  0.000E+00 1.638E-04
     extrapolated charge  131.63218, renormalised to  132.00000
     Generating pointlists ...

     Self-consistent Calculation

[...]

     iteration # 39     ecut=    90.00 Ry     beta= 0.20
     CG style diagonalization
     c_bands:  1 eigenvalues not converged
     ethr =  9.21E-13,  avg # of iterations =  3.0

[...]

     total energy              =   -2510.74487700 Ry
     estimated scf accuracy    <          1.2E-10 Ry

[...]

     iteration # 46     ecut=    90.00 Ry     beta= 0.20
     CG style diagonalization
     ethr =  1.00E-13,  avg # of iterations =  3.2

[...]

     Magnetic moment per site:
     atom:    1    charge:   13.8705    magn:    2.7091    constr:    0.0000
     atom:    2    charge:   15.0447    magn:    1.7771    constr:    0.0000
     atom:    3    charge:   13.8727    magn:    2.7033    constr:    0.0000
     atom:    4    charge:   15.0416    magn:    1.7628    constr:    0.0000
     atom:    5    charge:   13.8537    magn:    2.7153    constr:    0.0000
     atom:    6    charge:   15.0569    magn:    1.8123    constr:    0.0000
     atom:    7    charge:   13.8804    magn:    2.6965    constr:    0.0000
     atom:    8    charge:   15.0395    magn:    1.7568    constr:    0.0000

     End of self-consistent calculation

     Number of k-points >= 100: set verbosity='high' to print the bands.

     the Fermi energy is    15.6075 ev

!    total energy              =   -2510.74487700 Ry
     estimated scf accuracy    <          6.1E-11 Ry
     smearing contrib. (-TS)   =      -0.00554544 Ry
     internal energy E=F+TS    =   -2510.73933156 Ry

     total magnetization       =    18.02 Bohr mag/cell
     absolute magnetization    =    18.79 Bohr mag/cell

     convergence has been achieved in  46 iterations

     negative rho (up, down):  0.000E+00 1.571E-04

     Forces acting on atoms (cartesian axes, Ry/au):

     atom    1 type  1   force =    -0.03912794    0.00469256   -0.02926314
     atom    2 type  2   force =    -0.00157754    0.02524128   -0.02548063
     atom    3 type  1   force =    -0.00264998   -0.01890733    0.04448456
     atom    4 type  2   force =    -0.01959429   -0.01832803    0.00061694
     atom    5 type  1   force =     0.01145687   -0.01322133   -0.02494863
     atom    6 type  2   force =     0.01836262   -0.01603777   -0.00975583
     atom    7 type  1   force =     0.02425087    0.03206943    0.01643103
     atom    8 type  2   force =     0.00887939    0.00449120    0.02791570

     Total force =     0.105569     Total SCF correction =     0.000009

     Computing stress (Cartesian axis) and pressure

     negative rho (up, down):  0.000E+00 1.571E-04
          total   stress  (Ry/bohr**3)                   (kbar)     P=      -14.92
  -0.00010767  -0.00005590  -0.00001541          -15.84       -8.22       -2.27
  -0.00005590  -0.00009280   0.00001192           -8.22      -13.65        1.75
  -0.00001541   0.00001192  -0.00010387           -2.27        1.75      -15.28

     Entering Dynamics;  it =   102   time =  0.09772 pico-seconds

  new lattice vectors (alat unit) :
   1.027335570   0.000201497  -0.001916523
   0.000201497   1.025812137   0.002095613
  -0.001916523   0.002095613   1.031771115
  new unit-cell volume =    692.7303 (a.u.)^3
  new positions in cryst coord
Fe      -0.057406786   0.522533042   0.002106103
Co       0.501666863   0.034576449   0.442524281
Fe       0.003579442  -0.000218597   0.559379887
Co       0.435778195   0.443053935   0.000480841
Fe       0.548843690  -0.052848169  -0.052857907
Co       0.006978892   0.496126586   0.491738827
Fe       0.503968880   0.532860367   0.494778147
Co       0.056537651   0.024038300   0.062028302
  new positions in cart coord (alat unit)
Fe      -0.058874781   0.536013582   0.003378065
Co       0.514539071   0.036497384   0.455694774
Fe       0.002605180   0.000948726   0.577144692
Co       0.447778793   0.454578920   0.000589409
Fe       0.563937299  -0.054212473  -0.055699883
Co       0.006327203   0.509964573   0.508388231
Fe       0.516904272   0.547753043   0.510648601
Co       0.057969105   0.024800160   0.063941029

     Ekin =     0.03830647 Ry    T =  407.6 K  Etot =    -2510.70656580
     new unit-cell volume =    692.73034 a.u.^3 (   102.65205 Ang^3 )
     density =      7.42677 g/cm^3

CELL_PARAMETERS (angstrom)
   4.677869783   0.000917495  -0.008726697
   0.000917495   4.670932983   0.009542163
  -0.008726697   0.009542163   4.698066596

ATOMIC_POSITIONS (angstrom)
Fe           -0.2680804286        2.4406842448        0.0153816804
Co            2.3429022077        0.1661871892        2.0749605837
Fe            0.0118624253        0.0043199281        2.6279706412
Co            2.0389159558        2.0698796530        0.0026838131
Fe            2.5678320983       -0.2468510754       -0.2536238465
Co            0.0288102872        2.3220726888        2.3148949732
Fe            2.3536719110        2.4941387045        2.3251873402
Co            0.2639565231        0.1129250477        0.2911490820

     Maximum number of iterations reached, stopping

     General routines

     Parallel routines

   This run was terminated on:  17: 7:26  20Feb2022

   JOB DONE.
Note: The following floating-point exceptions are signalling: IEEE_INVALID_FLAG IEEE_UNDERFLOW_FLAG IEEE_DENORMAL
Note: The following floating-point exceptions are signalling: IEEE_UNDERFLOW_FLAG IEEE_DENORMAL
Note: The following floating-point exceptions are signalling: IEEE_UNDERFLOW_FLAG IEEE_DENORMAL
Note: The following floating-point exceptions are signalling: IEEE_UNDERFLOW_FLAG IEEE_DENORMAL
Note: The following floating-point exceptions are signalling: IEEE_UNDERFLOW_FLAG IEEE_DENORMAL
Note: The following floating-point exceptions are signalling: IEEE_UNDERFLOW_FLAG IEEE_DENORMAL
Note: The following floating-point exceptions are signalling: IEEE_UNDERFLOW_FLAG IEEE_DENORMAL
Note: The following floating-point exceptions are signalling: IEEE_UNDERFLOW_FLAG IEEE_DENORMAL
Note: The following floating-point exceptions are signalling: IEEE_UNDERFLOW_FLAG IEEE_DENORMAL
Note: The following floating-point exceptions are signalling: IEEE_UNDERFLOW_FLAG IEEE_DENORMAL
Note: The following floating-point exceptions are signalling: IEEE_UNDERFLOW_FLAG IEEE_DENORMAL
Note: The following floating-point exceptions are signalling: IEEE_UNDERFLOW_FLAG IEEE_DENORMAL
Note: The following floating-point exceptions are signalling: IEEE_UNDERFLOW_FLAG IEEE_DENORMAL
Note: The following floating-point exceptions are signalling: IEEE_UNDERFLOW_FLAG IEEE_DENORMAL
Note: The following floating-point exceptions are signalling: IEEE_UNDERFLOW_FLAG IEEE_DENORMAL
Note: The following floating-point exceptions are signalling: IEEE_UNDERFLOW_FLAG IEEE_DENORMAL
Note: The following floating-point exceptions are signalling: IEEE_UNDERFLOW_FLAG IEEE_DENORMAL
Note: The following floating-point exceptions are signalling: IEEE_UNDERFLOW_FLAG IEEE_DENORMAL
Note: The following floating-point exceptions are signalling: IEEE_UNDERFLOW_FLAG IEEE_DENORMAL
Note: The following floating-point exceptions are signalling: IEEE_UNDERFLOW_FLAG IEEE_DENORMAL
Note: The following floating-point exceptions are signalling: IEEE_UNDERFLOW_FLAG IEEE_DENORMAL
Note: The following floating-point exceptions are signalling: IEEE_UNDERFLOW_FLAG IEEE_DENORMAL
Note: The following floating-point exceptions are signalling: IEEE_UNDERFLOW_FLAG IEEE_DENORMAL
Note: The following floating-point exceptions are signalling: IEEE_UNDERFLOW_FLAG IEEE_DENORMAL