     Program PWSCF v.6.7MaX starts on 10Feb2022 at 21:27:11

     R & G space division:  proc/nbgrp/npool/nimage =      24
     Reading input from /home/kevin/QE_CoCrFeMnNi/CoCrFeMnNi/Opt/binary/Opt-B1-FeNi/Mix/MD/600K_0.0001Gpa-B1-FeNi/600K_0.0001Gpa-B1-FeNi.in

     Current dimensions of program PWSCF are:
     Max number of different atomic species (ntypx) = 10
     Max number of k-points (npk) =  40000
     Max angular momentum in pseudopotentials (lmaxx) =  3

     File ./pwscf.md deleted, as requested
     file Fe.pbe-spn-kjpaw_psl.0.2.1.UPF: wavefunction(s)  3D renormalized

     Subspace diagonalization in iterative solution of the eigenvalue problem:
     a serial algorithm will be used

     Found symmetry operation: I + (  0.0000  0.5000 -0.5000)
     This is a supercell, fractional translations are disabled

     bravais-lattice index     =            0
     lattice parameter (alat)  =       8.7071  a.u.
     unit-cell volume          =     660.1170 (a.u.)^3
     number of atoms/cell      =            8
     number of atomic types    =            2
     number of electrons       =       136.00
     number of Kohn-Sham states=           82
     kinetic-energy cutoff     =      90.0000  Ry
     charge density cutoff     =    1080.0000  Ry
     scf convergence threshold =      1.0E-08
     mixing beta               =       0.2000
     number of iterations used =            4  plain     mixing
     energy convergence thresh.=      0.0E+00
     force convergence thresh. =      0.0E+00
     press convergence thresh. =      0.0E+00
     Exchange-correlation= SLA  PW   PBX  PBC
                           (   1   4   3   4   0   0   0)
     nstep                     =          102

     celldm(1)=   8.707102  celldm(2)=   0.000000  celldm(3)=   0.000000
     celldm(4)=   0.000000  celldm(5)=   0.000000  celldm(6)=   0.000000

     crystal axes: (cart. coord. in units of alat)
               a(1) = (   1.000000   0.000000   0.000000 )
               a(2) = (   0.000000   1.000000   0.000000 )
               a(3) = (   0.000000   0.000000   1.000000 )

     reciprocal axes: (cart. coord. in units 2 pi/alat)
               b(1) = (  1.000000  0.000000  0.000000 )
               b(2) = (  0.000000  1.000000  0.000000 )
               b(3) = (  0.000000  0.000000  1.000000 )

     PseudoPot. # 1 for Ni read from file:
     /opt/QEpot/SSSP_efficiency_pseudos/ni_pbe_v1.4.uspp.F.UPF
     MD5 check sum: 1ee80287db30b12d2bc1f57a5b5d6409
     Pseudo is Ultrasoft + core correction, Zval = 18.0
     Generated by new atomic code, or converted to UPF format
     Using radial grid of  865 points,  6 beta functions with:
                l(1) =   0
                l(2) =   0
                l(3) =   1
                l(4) =   1
                l(5) =   2
                l(6) =   2
     Q(r) pseudized with 10 coefficients,  rinner =    0.980   0.980   0.980
                                                       0.980   0.980

     PseudoPot. # 2 for Fe read from file:
     /opt/QEpot/SSSP_efficiency_pseudos/Fe.pbe-spn-kjpaw_psl.0.2.1.UPF
     MD5 check sum: e86618425769142926afa95317d90200
     Pseudo is Projector augmented-wave + core cor, Zval = 16.0
     Generated using "atomic" code by A. Dal Corso  v.5.0.99 svn rev. 10869
     Shape of augmentation charge: PSQ
     Using radial grid of 1191 points,  6 beta functions with:
                l(1) =   0
                l(2) =   0
                l(3) =   1
                l(4) =   1
                l(5) =   2
                l(6) =   2
     Q(r) pseudized with 0 coefficients

     atomic species   valence    mass     pseudopotential
        Ni            18.00    58.69300     Ni( 1.00)
        Fe            16.00    55.84500     Fe( 1.00)

      cell mass =  34.81538 AMU

     Starting magnetic structure
     atomic species   magnetization
        Ni           0.000
        Fe          -0.000

     No symmetry found

   Cartesian axes

     site n.     atom                  positions (alat units)
         1           Ni  tau(   1) = (   0.0000000   0.5000000   0.0000000  )
         2           Fe  tau(   2) = (   0.5000000   0.0000000   0.5000000  )
         3           Ni  tau(   3) = (   0.0000000   0.0000000   0.5000000  )
         4           Fe  tau(   4) = (   0.5000000   0.5000000   0.0000000  )
         5           Ni  tau(   5) = (   0.5000000   0.0000000   0.0000000  )
         6           Fe  tau(   6) = (   0.0000000   0.5000000   0.5000000  )
         7           Ni  tau(   7) = (   0.5000000   0.5000000   0.5000000  )
         8           Fe  tau(   8) = (   0.0000000   0.0000000   0.0000000  )

     number of k points=    63  Gaussian smearing, width (Ry)=  0.0100
                       cart. coord. in units 2pi/alat
        k(    1) = (   0.0000000   0.0000000   0.0000000), wk =   0.0080000
        k(    2) = (   0.0000000   0.0000000   0.2000000), wk =   0.0160000
        k(    3) = (   0.0000000   0.0000000   0.4000000), wk =   0.0160000
        k(    4) = (   0.0000000   0.2000000   0.0000000), wk =   0.0160000
        k(    5) = (   0.0000000   0.2000000   0.2000000), wk =   0.0160000
        k(    6) = (   0.0000000   0.2000000   0.4000000), wk =   0.0160000
        k(    7) = (   0.0000000   0.2000000  -0.4000000), wk =   0.0160000
        k(    8) = (   0.0000000   0.2000000  -0.2000000), wk =   0.0160000
        k(    9) = (   0.0000000   0.4000000   0.0000000), wk =   0.0160000
        k(   10) = (   0.0000000   0.4000000   0.2000000), wk =   0.0160000
        k(   11) = (   0.0000000   0.4000000   0.4000000), wk =   0.0160000
        k(   12) = (   0.0000000   0.4000000  -0.4000000), wk =   0.0160000
        k(   13) = (   0.0000000   0.4000000  -0.2000000), wk =   0.0160000
        k(   14) = (   0.2000000   0.0000000   0.0000000), wk =   0.0160000
        k(   15) = (   0.2000000   0.0000000   0.2000000), wk =   0.0160000
        k(   16) = (   0.2000000   0.0000000   0.4000000), wk =   0.0160000
        k(   17) = (   0.2000000   0.0000000  -0.4000000), wk =   0.0160000
        k(   18) = (   0.2000000   0.0000000  -0.2000000), wk =   0.0160000
        k(   19) = (   0.2000000   0.2000000   0.0000000), wk =   0.0160000
        k(   20) = (   0.2000000   0.2000000   0.2000000), wk =   0.0160000
        k(   21) = (   0.2000000   0.2000000   0.4000000), wk =   0.0160000
        k(   22) = (   0.2000000   0.2000000  -0.4000000), wk =   0.0160000
        k(   23) = (   0.2000000   0.2000000  -0.2000000), wk =   0.0160000
        k(   24) = (   0.2000000   0.4000000   0.0000000), wk =   0.0160000
        k(   25) = (   0.2000000   0.4000000   0.2000000), wk =   0.0160000
        k(   26) = (   0.2000000   0.4000000   0.4000000), wk =   0.0160000
        k(   27) = (   0.2000000   0.4000000  -0.4000000), wk =   0.0160000
        k(   28) = (   0.2000000   0.4000000  -0.2000000), wk =   0.0160000
        k(   29) = (   0.2000000  -0.4000000   0.0000000), wk =   0.0160000
        k(   30) = (   0.2000000  -0.4000000   0.2000000), wk =   0.0160000
        k(   31) = (   0.2000000  -0.4000000   0.4000000), wk =   0.0160000
        k(   32) = (   0.2000000  -0.4000000  -0.4000000), wk =   0.0160000
        k(   33) = (   0.2000000  -0.4000000  -0.2000000), wk =   0.0160000
        k(   34) = (   0.2000000  -0.2000000   0.0000000), wk =   0.0160000
        k(   35) = (   0.2000000  -0.2000000   0.2000000), wk =   0.0160000
        k(   36) = (   0.2000000  -0.2000000   0.4000000), wk =   0.0160000
        k(   37) = (   0.2000000  -0.2000000  -0.4000000), wk =   0.0160000
        k(   38) = (   0.2000000  -0.2000000  -0.2000000), wk =   0.0160000
        k(   39) = (   0.4000000   0.0000000   0.0000000), wk =   0.0160000
        k(   40) = (   0.4000000   0.0000000   0.2000000), wk =   0.0160000
        k(   41) = (   0.4000000   0.0000000   0.4000000), wk =   0.0160000
        k(   42) = (   0.4000000   0.0000000  -0.4000000), wk =   0.0160000
        k(   43) = (   0.4000000   0.0000000  -0.2000000), wk =   0.0160000
        k(   44) = (   0.4000000   0.2000000   0.0000000), wk =   0.0160000
        k(   45) = (   0.4000000   0.2000000   0.2000000), wk =   0.0160000
        k(   46) = (   0.4000000   0.2000000   0.4000000), wk =   0.0160000
        k(   47) = (   0.4000000   0.2000000  -0.4000000), wk =   0.0160000
        k(   48) = (   0.4000000   0.2000000  -0.2000000), wk =   0.0160000
        k(   49) = (   0.4000000   0.4000000   0.0000000), wk =   0.0160000
        k(   50) = (   0.4000000   0.4000000   0.2000000), wk =   0.0160000
        k(   51) = (   0.4000000   0.4000000   0.4000000), wk =   0.0160000
        k(   52) = (   0.4000000   0.4000000  -0.4000000), wk =   0.0160000
        k(   53) = (   0.4000000   0.4000000  -0.2000000), wk =   0.0160000
        k(   54) = (   0.4000000  -0.4000000   0.0000000), wk =   0.0160000
        k(   55) = (   0.4000000  -0.4000000   0.2000000), wk =   0.0160000
        k(   56) = (   0.4000000  -0.4000000   0.4000000), wk =   0.0160000
        k(   57) = (   0.4000000  -0.4000000  -0.4000000), wk =   0.0160000
        k(   58) = (   0.4000000  -0.4000000  -0.2000000), wk =   0.0160000
        k(   59) = (   0.4000000  -0.2000000   0.0000000), wk =   0.0160000
        k(   60) = (   0.4000000  -0.2000000   0.2000000), wk =   0.0160000
        k(   61) = (   0.4000000  -0.2000000   0.4000000), wk =   0.0160000
        k(   62) = (   0.4000000  -0.2000000  -0.4000000), wk =   0.0160000
        k(   63) = (   0.4000000  -0.2000000  -0.2000000), wk =   0.0160000

     Check: negative core charge=   -0.000010
     Generating pointlists ...
     new r_m :   0.2063 (alat units)  1.7958 (a.u.) for type    1
     new r_m :   0.2063 (alat units)  1.7958 (a.u.) for type    2

     Initial potential from superposition of free atoms

     starting charge  127.99825, renormalised to  136.00000
     Starting wfcs are  104 randomized atomic wfcs
     Checking if some PAW data can be deallocated...

     Self-consistent Calculation

     iteration #  1     ecut=    90.00 Ry     beta= 0.20
     CG style diagonalization
     ethr =  1.00E-02,  avg # of iterations =  3.0

     total energy              =   -2667.38752966 Ry
     estimated scf accuracy    <     112.72383900 Ry

     total magnetization       =    -0.00 Bohr mag/cell
     absolute magnetization    =     0.03 Bohr mag/cell

[...]

     iteration #  9     ecut=    90.00 Ry     beta= 0.20
     CG style diagonalization
     c_bands:  1 eigenvalues not converged
     c_bands:  1 eigenvalues not converged
     c_bands:  2 eigenvalues not converged
     c_bands:  1 eigenvalues not converged
     c_bands:  1 eigenvalues not converged
     c_bands:  1 eigenvalues not converged
     c_bands:  1 eigenvalues not converged
     c_bands:  1 eigenvalues not converged
     ethr =  3.78E-05,  avg # of iterations =  4.0

[...]

     negative rho (up, down):  3.353E-06 0.000E+00

[...]

     Magnetic moment per site:
     atom:    1    charge:   16.3688    magn:   -0.8374    constr:    0.0000
     atom:    2    charge:   14.0174    magn:    2.4180    constr:    0.0000
     atom:    3    charge:   16.3791    magn:   -0.3113    constr:    0.0000
     atom:    4    charge:   14.0133    magn:   -2.7014    constr:    0.0000
     atom:    5    charge:   16.3791    magn:   -0.3114    constr:    0.0000
     atom:    6    charge:   14.0133    magn:   -2.7014    constr:    0.0000
     atom:    7    charge:   16.3791    magn:   -0.3113    constr:    0.0000
     atom:    8    charge:   14.0133    magn:   -2.7014    constr:    0.0000

     End of self-consistent calculation

     Number of k-points >= 100: set verbosity='high' to print the bands.

     the Fermi energy is    16.5121 ev

!    total energy              =   -2689.80695205 Ry
     estimated scf accuracy    <          6.8E-09 Ry
     smearing contrib. (-TS)   =      -0.00381294 Ry
     internal energy E=F+TS    =   -2689.80313912 Ry

[...]

     convergence has been achieved in 130 iterations

[...]

     Forces acting on atoms (cartesian axes, Ry/au):

     atom    1 type  1   force =    -0.00000007   -0.00000000   -0.00000000
     atom    2 type  2   force =    -0.00000000    0.00000001    0.00000002
     atom    3 type  1   force =    -0.00000007    0.00000002   -0.00000001
     atom    4 type  2   force =     0.00000005    0.00000006   -0.00000009
     atom    5 type  1   force =    -0.00000005   -0.00000001   -0.00000000
     atom    6 type  2   force =     0.00000012   -0.00000004    0.00000012
     atom    7 type  1   force =    -0.00000009    0.00000000   -0.00000000
     atom    8 type  2   force =     0.00000011   -0.00000005   -0.00000003

     Total force =     0.000000     Total SCF correction =     0.000000
     SCF correction compared to forces is large: reduce conv_thr to get better values

     Computing stress (Cartesian axis) and pressure

     negative rho (up, down):  1.527E-04 4.069E-05
          total   stress  (Ry/bohr**3)                   (kbar)     P=      129.71
   0.00088176   0.00000000   0.00000000          129.71        0.00        0.00
   0.00000000   0.00088176   0.00000000            0.00      129.71        0.00
   0.00000000   0.00000000   0.00088178            0.00        0.00      129.71

     Entering Dynamics;  it =     1   time =  0.00000 pico-seconds

     File pwscf.e deleted, as requested

     File pwscf.eal deleted, as requested

     File pwscf.ave deleted, as requested

     File pwscf.p deleted, as requested

     File pwscf.avec deleted, as requested

     File pwscf.tv deleted, as requested
  new lattice vectors (alat unit) :
   1.000068025  -0.000001417  -0.000000109
  -0.000001417   1.000065769   0.000001292
  -0.000000109   0.000001292   1.000068611
  new unit-cell volume =    660.2506 (a.u.)^3
  new positions in cryst coord
Ni      -0.001343221   0.500238598  -0.000603171
Fe       0.500062248  -0.000064942   0.499708816
Ni       0.000291765  -0.000003135   0.501100070
Fe       0.500205714   0.499597832  -0.000679247
Ni       0.501047858  -0.000723797  -0.000766034
Fe      -0.000301385   0.500362005   0.500965350
Ni       0.500003598   0.500488335   0.500269135
Fe       0.000033423   0.000105105   0.000005081
  new positions in cart coord (alat unit)
Ni      -0.001344021   0.500271499  -0.000602566
Fe       0.500096210  -0.000065009   0.499743047
Ni       0.000291730  -0.000002488   0.501134451
Fe       0.500239033   0.499629980  -0.000678703
Ni       0.501081943  -0.000724556  -0.000766142
Fe      -0.000302170   0.500395561   0.501000368
Ni       0.500036846   0.500521189   0.500304051
Fe       0.000033426   0.000105112   0.000005081

     Ekin =     0.03990183 Ry    T =    0.0 K  Etot =    -2689.76704574
     new unit-cell volume =    660.25061 a.u.^3 (    97.83905 Ang^3 )
     density =      7.77582 g/cm^3

CELL_PARAMETERS (angstrom)
   4.607913430  -0.000006530  -0.000000504
  -0.000006530   4.607903039   0.000005953
  -0.000000504   0.000005953   4.607916131

ATOMIC_POSITIONS (angstrom)
Ni           -0.0061927134        2.3050509592       -0.0027763821
Fe            2.3042432965       -0.0002995368        2.3026160622
Ni            0.0013441759       -0.0000114647        2.3090270941
Fe            2.3049013661        2.3020950971       -0.0031271910
Ni            2.3087851600       -0.0033384647       -0.0035300766
Fe           -0.0013922777        2.3056225862        2.3084092952
Ni            2.3039697724        2.3062014314        2.3052009433
Fe            0.0001540115        0.0004843145        0.0000234125

     Writing output data file ./pwscf.save/
     NEW-OLD atomic charge density approx. for the potential

     Check: negative core charge=   -0.000010

     negative rho (up, down):  1.504E-04 4.058E-05
     extrapolated charge  136.02590, renormalised to  136.00000
     Generating pointlists ...

[...]

     Total force =     0.007911     Total SCF correction =     0.000235

[...]

  new lattice vectors (alat unit) :
   1.000253403  -0.000005280  -0.000000409
  -0.000005280   1.000244962   0.000004819
  -0.000000409   0.000004819   1.000255601
  new unit-cell volume =    660.6148 (a.u.)^3
  new positions in cryst coord
Ni      -0.002862136   0.500508698  -0.001283653
Fe       0.500132907  -0.000137431   0.499377923
Ni       0.000621813  -0.000006156   0.502344366
Fe       0.500435692   0.499141551  -0.001446706
Ni       0.502233176  -0.001543300  -0.001633086
Fe      -0.000641970   0.500771286   0.502055751
Ni       0.500007143   0.501040719   0.500572351
Fe       0.000073373   0.000224634   0.000013055
  new positions in cart coord (alat unit)
Ni      -0.002865503   0.500631313  -0.001281568
Fe       0.500259439  -0.000137699   0.499505359
Ni       0.000621765  -0.000003740   0.502472766
Fe       0.500559869   0.499261172  -0.001444876
Ni       0.502360452  -0.001546338  -0.001633716
Fe      -0.000644982   0.500896379   0.502186490
Ni       0.500130996   0.501163227   0.500702508
Fe       0.000073391   0.000224689   0.000013059

[...]

     negative rho (up, down):  1.330E-04 3.893E-05
     extrapolated charge  136.14803, renormalised to  136.00000
     Generating pointlists ...
     new r_m :   0.2036 (alat units)  1.7730 (a.u.) for type    1
     new r_m :   0.2036 (alat units)  1.7730 (a.u.) for type    2

[...]

     negative rho (up, down):  9.406E-05 3.215E-05
     extrapolated charge  136.47920, renormalised to  136.00000
     Generating pointlists ...
     new r_m :   0.1992 (alat units)  1.7348 (a.u.) for type    1
     new r_m :   0.1992 (alat units)  1.7348 (a.u.) for type    2

[...]

     iteration #  1     ecut=    90.00 Ry     beta= 0.20
     CG style diagonalization
     c_bands:  1 eigenvalues not converged
     ethr =  1.00E-06,  avg # of iterations = 18.5

[...]

     Writing output data file ./pwscf.save/
     NEW-OLD atomic charge density approx. for the potential

     Check: negative core charge=   -0.000010

     negative rho (up, down):  1.265E-04 3.730E-05
     extrapolated charge  135.43518, renormalised to  136.00000
     Generating pointlists ...

     Self-consistent Calculation

[...]

     total energy              =   -2689.93732193 Ry
     estimated scf accuracy    <       0.00000002 Ry

[...]

     iteration # 45     ecut=    90.00 Ry     beta= 0.20
     CG style diagonalization
     ethr =  7.52E-12,  avg # of iterations =  3.0

[...]

     Magnetic moment per site:
     atom:    1    charge:   16.1344    magn:   -0.8382    constr:    0.0000
     atom:    2    charge:   13.7896    magn:    2.4923    constr:    0.0000
     atom:    3    charge:   16.1429    magn:   -0.3631    constr:    0.0000
     atom:    4    charge:   13.7830    magn:   -2.7302    constr:    0.0000
     atom:    5    charge:   16.1137    magn:   -0.2327    constr:    0.0000
     atom:    6    charge:   13.8029    magn:   -2.7542    constr:    0.0000
     atom:    7    charge:   16.1524    magn:   -0.2479    constr:    0.0000
     atom:    8    charge:   13.7871    magn:   -2.6627    constr:    0.0000

     End of self-consistent calculation

     Number of k-points >= 100: set verbosity='high' to print the bands.

     the Fermi energy is    16.1065 ev

!    total energy              =   -2689.93732193 Ry
     estimated scf accuracy    <          8.2E-09 Ry
     smearing contrib. (-TS)   =      -0.00679879 Ry
     internal energy E=F+TS    =   -2689.93052314 Ry

     total magnetization       =    -7.41 Bohr mag/cell
     absolute magnetization    =    13.23 Bohr mag/cell

     convergence has been achieved in  45 iterations

     negative rho (up, down):  1.243E-04 3.515E-05

     Forces acting on atoms (cartesian axes, Ry/au):

     atom    1 type  1   force =    -0.03588146   -0.00001650   -0.01673797
     atom    2 type  2   force =     0.00318875    0.01276610   -0.01948066
     atom    3 type  1   force =     0.00114068   -0.01166504    0.05265719
     atom    4 type  2   force =     0.00095543   -0.00471742   -0.01017084
     atom    5 type  1   force =     0.00879431   -0.00987639   -0.03077707
     atom    6 type  2   force =     0.00835880   -0.00410352    0.00338296
     atom    7 type  1   force =     0.01750915    0.03044694    0.00868966
     atom    8 type  2   force =    -0.00406565   -0.01283416    0.01243673

     Total force =     0.089567     Total SCF correction =     0.000136

     Computing stress (Cartesian axis) and pressure

     negative rho (up, down):  1.243E-04 3.515E-05
          total   stress  (Ry/bohr**3)                   (kbar)     P=       20.59
   0.00017411   0.00004220   0.00009111           25.61        6.21       13.40
   0.00004220   0.00021303  -0.00005921            6.21       31.34       -8.71
   0.00009111  -0.00005921   0.00003267           13.40       -8.71        4.81

     Entering Dynamics;  it =   102   time =  0.09772 pico-seconds

  new lattice vectors (alat unit) :
   1.003152197   0.018325556   0.008226261
   0.018325556   0.997935356   0.003330725
   0.008226261   0.003330725   1.012152984
  new unit-cell volume =    668.5860 (a.u.)^3
  new positions in cryst coord
Ni      -0.078091607   0.532582257   0.017949571
Fe       0.512603260   0.039206040   0.426302381
Ni       0.009095036   0.010289534   0.577541754
Fe       0.408729175   0.424799674  -0.013567708
Ni       0.575526518  -0.079432044  -0.076199940
Fe      -0.000192425   0.508605433   0.501764171
Ni       0.496011275   0.537920647   0.481138943
Fe       0.076189171   0.025959082   0.085048881
  new positions in cart coord (alat unit)
Ni      -0.068430243   0.530111377   0.019299194
Fe       0.518444434   0.049938729   0.435830620
Ni       0.014063276   0.012358594   0.584669700
Fe       0.417690649   0.431367613  -0.008955392
Ni       0.575258214  -0.068975003  -0.072656131
Fe       0.013255089   0.509223056   0.509554545
Ni       0.511390470   0.547502256   0.492858201
Fe       0.077604683   0.027584969   0.086795693

     Ekin =     0.06038775 Ry    T =  672.5 K  Etot =    -2689.87692962
     new unit-cell volume =    668.58603 a.u.^3 (    99.07423 Ang^3 )
     density =      7.67888 g/cm^3

CELL_PARAMETERS (angstrom)
   4.622124063   0.084436833   0.037903320
   0.084436833   4.598086948   0.015346648
   0.037903320   0.015346648   4.663596090

ATOMIC_POSITIONS (angstrom)
Ni           -0.3152991896        2.4425411828        0.0889229685
Fe            2.3887845723        0.2300976890        2.0081331634
Ni            0.0647979483        0.0569434589        2.6939241096
Fe            1.9245514341        1.9875694132       -0.0412628649
Ni            2.6505597446       -0.3178092240       -0.3347703905
Fe            0.0610741471        2.3462961513        2.3478235218
Ni            2.3562827284        2.5226713965        2.2708934476
Fe            0.3575713385        0.1271005046        0.3999198347

     Maximum number of iterations reached, stopping

     General routines

     Parallel routines

   This run was terminated on:  10:47:20  12Feb2022

   JOB DONE.
Note: The following floating-point exceptions are signalling: IEEE_UNDERFLOW_FLAG IEEE_DENORMAL
Note: The following floating-point exceptions are signalling: IEEE_UNDERFLOW_FLAG IEEE_DENORMAL
Note: The following floating-point exceptions are signalling: IEEE_UNDERFLOW_FLAG IEEE_DENORMAL
Note: The following floating-point exceptions are signalling: IEEE_UNDERFLOW_FLAG IEEE_DENORMAL
Note: The following floating-point exceptions are signalling: IEEE_UNDERFLOW_FLAG IEEE_DENORMAL
Note: The following floating-point exceptions are signalling: IEEE_UNDERFLOW_FLAG IEEE_DENORMAL
Note: The following floating-point exceptions are signalling: IEEE_UNDERFLOW_FLAG IEEE_DENORMAL
Note: The following floating-point exceptions are signalling: IEEE_UNDERFLOW_FLAG IEEE_DENORMAL
Note: The following floating-point exceptions are signalling: IEEE_UNDERFLOW_FLAG IEEE_DENORMAL
Note: The following floating-point exceptions are signalling: IEEE_INVALID_FLAG IEEE_UNDERFLOW_FLAG IEEE_DENORMAL
Note: The following floating-point exceptions are signalling: IEEE_UNDERFLOW_FLAG IEEE_DENORMAL
Note: The following floating-point exceptions are signalling: IEEE_UNDERFLOW_FLAG IEEE_DENORMAL
Note: The following floating-point exceptions are signalling: IEEE_UNDERFLOW_FLAG IEEE_DENORMAL
Note: The following floating-point exceptions are signalling: IEEE_UNDERFLOW_FLAG IEEE_DENORMAL
Note: The following floating-point exceptions are signalling: IEEE_UNDERFLOW_FLAG IEEE_DENORMAL
Note: The following floating-point exceptions are signalling: IEEE_UNDERFLOW_FLAG IEEE_DENORMAL
Note: The following floating-point exceptions are signalling: IEEE_UNDERFLOW_FLAG IEEE_DENORMAL
Note: The following floating-point exceptions are signalling: IEEE_INVALID_FLAG IEEE_UNDERFLOW_FLAG IEEE_DENORMAL
Note: The following floating-point exceptions are signalling: IEEE_UNDERFLOW_FLAG IEEE_DENORMAL
Note: The following floating-point exceptions are signalling: IEEE_UNDERFLOW_FLAG IEEE_DENORMAL
Note: The following floating-point exceptions are signalling: IEEE_UNDERFLOW_FLAG IEEE_DENORMAL
Note: The following floating-point exceptions are signalling: IEEE_UNDERFLOW_FLAG IEEE_DENORMAL
Note: The following floating-point exceptions are signalling: IEEE_INVALID_FLAG IEEE_UNDERFLOW_FLAG IEEE_DENORMAL
Note: The following floating-point exceptions are signalling: IEEE_UNDERFLOW_FLAG IEEE_DENORMAL