     Program PWSCF v.6.7MaX starts on  9Feb2022 at 11: 8:51

     R & G space division:  proc/nbgrp/npool/nimage =      24
     Reading input from /home/kevin/QE_CoCrFeMnNi/CoCrFeMnNi/Opt/binary/Opt-B1-CrNi/Mix/MD/300K_0.0001Gpa-B1-CrNi/300K_0.0001Gpa-B1-CrNi.in

     Current dimensions of program PWSCF are:
     Max number of different atomic species (ntypx) = 10
     Max number of k-points (npk) =  40000
     Max angular momentum in pseudopotentials (lmaxx) =  3

     Subspace diagonalization in iterative solution of the eigenvalue problem:
     a serial algorithm will be used

     Found symmetry operation: I + (  0.0000 -0.5000  0.5000)
     This is a supercell, fractional translations are disabled

     bravais-lattice index     =            0
     lattice parameter (alat)  =       8.8471  a.u.
     unit-cell volume          =     692.4802 (a.u.)^3
     number of atoms/cell      =            8
     number of atomic types    =            2
     number of electrons       =       128.00
     number of Kohn-Sham states=           77
     kinetic-energy cutoff     =      90.0000  Ry
     charge density cutoff     =    1080.0000  Ry
     scf convergence threshold =      1.0E-08
     mixing beta               =       0.2000
     number of iterations used =            4  plain     mixing
     energy convergence thresh.=      0.0E+00
     force convergence thresh. =      0.0E+00
     press convergence thresh. =      0.0E+00
     Exchange-correlation=  SLA  PW   PBX  PBC
                           (   1   4   3   4   0   0   0)
     nstep                     =          102

     celldm(1)=   8.847131  celldm(2)=   0.000000  celldm(3)=   0.000000
     celldm(4)=   0.000000  celldm(5)=   0.000000  celldm(6)=   0.000000

     crystal axes: (cart. coord. in units of alat)
               a(1) = (   1.000000   0.000000   0.000000 )
               a(2) = (   0.000000   1.000000   0.000000 )
               a(3) = (   0.000000   0.000000   1.000000 )

     reciprocal axes: (cart. coord. in units 2 pi/alat)
               b(1) = (  1.000000  0.000000  0.000000 )
               b(2) = (  0.000000  1.000000  0.000000 )
               b(3) = (  0.000000  0.000000  1.000000 )

     PseudoPot. # 1 for Ni read from file:
     /opt/QEpot/SSSP_efficiency_pseudos/ni_pbe_v1.4.uspp.F.UPF
     MD5 check sum: 1ee80287db30b12d2bc1f57a5b5d6409
     Pseudo is Ultrasoft + core correction, Zval = 18.0
     Generated by new atomic code, or converted to UPF format
     Using radial grid of  865 points,  6 beta functions with:
                l(1) =   0
                l(2) =   0
                l(3) =   1
                l(4) =   1
                l(5) =   2
                l(6) =   2
     Q(r) pseudized with 10 coefficients,  rinner =    0.980   0.980   0.980
                                                       0.980   0.980

     PseudoPot. # 2 for Cr read from file:
     /opt/QEpot/SSSP_efficiency_pseudos/cr_pbe_v1.5.uspp.F.UPF
     MD5 check sum: 0d52af634a40206e4dee301ad30da4bf
     Pseudo is Ultrasoft + core correction, Zval = 14.0
     Generated by new atomic code, or converted to UPF format
     Using radial grid of  857 points,  6 beta functions with:
                l(1) =   0
                l(2) =   0
                l(3) =   1
                l(4) =   1
                l(5) =   2
                l(6) =   2
     Q(r) pseudized with  8 coefficients,  rinner =    0.950   0.950   0.950
                                                       0.950   0.950

     atomic species   valence    mass     pseudopotential
        Ni            18.00    58.69300     Ni( 1.00)
        Cr            14.00    51.99610     Cr( 1.00)

      cell mass =  33.64545 AMU

     Starting magnetic structure
     atomic species   magnetization
        Ni           0.000
        Cr           0.000

     No symmetry found

   Cartesian axes

     site n.     atom                  positions (alat units)
         1           Ni  tau(   1) = (   0.0000000   0.5000000   1.0000000  )
         2           Cr  tau(   2) = (   0.5000000   0.0000000   0.5000000  )
         3           Ni  tau(   3) = (   0.0000000   1.0000000   0.5000000  )
         4           Cr  tau(   4) = (   0.5000000   0.5000000   0.0000000  )
         5           Ni  tau(   5) = (   0.5000000   0.0000000   0.0000000  )
         6           Cr  tau(   6) = (   0.0000000   0.5000000   0.5000000  )
         7           Ni  tau(   7) = (   0.5000000   0.5000000   0.5000000  )
         8           Cr  tau(   8) = (   0.0000000   0.0000000   0.0000000  )

     number of k points=    63  Gaussian smearing, width (Ry)=  0.0100
                       cart. coord. in units 2pi/alat
        k(    1) = (   0.0000000   0.0000000   0.0000000), wk =   0.0080000
        k(    2) = (   0.0000000   0.0000000   0.2000000), wk =   0.0160000
        k(    3) = (   0.0000000   0.0000000   0.4000000), wk =   0.0160000
        k(    4) = (   0.0000000   0.2000000   0.0000000), wk =   0.0160000
        k(    5) = (   0.0000000   0.2000000   0.2000000), wk =   0.0160000
        k(    6) = (   0.0000000   0.2000000   0.4000000), wk =   0.0160000
        k(    7) = (   0.0000000   0.2000000  -0.4000000), wk =   0.0160000
        k(    8) = (   0.0000000   0.2000000  -0.2000000), wk =   0.0160000
        k(    9) = (   0.0000000   0.4000000   0.0000000), wk =   0.0160000
        k(   10) = (   0.0000000   0.4000000   0.2000000), wk =   0.0160000
        k(   11) = (   0.0000000   0.4000000   0.4000000), wk =   0.0160000
        k(   12) = (   0.0000000   0.4000000  -0.4000000), wk =   0.0160000
        k(   13) = (   0.0000000   0.4000000  -0.2000000), wk =   0.0160000
        k(   14) = (   0.2000000   0.0000000   0.0000000), wk =   0.0160000
        k(   15) = (   0.2000000   0.0000000   0.2000000), wk =   0.0160000
        k(   16) = (   0.2000000   0.0000000   0.4000000), wk =   0.0160000
        k(   17) = (   0.2000000   0.0000000  -0.4000000), wk =   0.0160000
        k(   18) = (   0.2000000   0.0000000  -0.2000000), wk =   0.0160000
        k(   19) = (   0.2000000   0.2000000   0.0000000), wk =   0.0160000
        k(   20) = (   0.2000000   0.2000000   0.2000000), wk =   0.0160000
        k(   21) = (   0.2000000   0.2000000   0.4000000), wk =   0.0160000
        k(   22) = (   0.2000000   0.2000000  -0.4000000), wk =   0.0160000
        k(   23) = (   0.2000000   0.2000000  -0.2000000), wk =   0.0160000
        k(   24) = (   0.2000000   0.4000000   0.0000000), wk =   0.0160000
        k(   25) = (   0.2000000   0.4000000   0.2000000), wk =   0.0160000
        k(   26) = (   0.2000000   0.4000000   0.4000000), wk =   0.0160000
        k(   27) = (   0.2000000   0.4000000  -0.4000000), wk =   0.0160000
        k(   28) = (   0.2000000   0.4000000  -0.2000000), wk =   0.0160000
        k(   29) = (   0.2000000  -0.4000000   0.0000000), wk =   0.0160000
        k(   30) = (   0.2000000  -0.4000000   0.2000000), wk =   0.0160000
        k(   31) = (   0.2000000  -0.4000000   0.4000000), wk =   0.0160000
        k(   32) = (   0.2000000  -0.4000000  -0.4000000), wk =   0.0160000
        k(   33) = (   0.2000000  -0.4000000  -0.2000000), wk =   0.0160000
        k(   34) = (   0.2000000  -0.2000000   0.0000000), wk =   0.0160000
        k(   35) = (   0.2000000  -0.2000000   0.2000000), wk =   0.0160000
        k(   36) = (   0.2000000  -0.2000000   0.4000000), wk =   0.0160000
        k(   37) = (   0.2000000  -0.2000000  -0.4000000), wk =   0.0160000
        k(   38) = (   0.2000000  -0.2000000  -0.2000000), wk =   0.0160000
        k(   39) = (   0.4000000   0.0000000   0.0000000), wk =   0.0160000
        k(   40) = (   0.4000000   0.0000000   0.2000000), wk =   0.0160000
        k(   41) = (   0.4000000   0.0000000   0.4000000), wk =   0.0160000
        k(   42) = (   0.4000000   0.0000000  -0.4000000), wk =   0.0160000
        k(   43) = (   0.4000000   0.0000000  -0.2000000), wk =   0.0160000
        k(   44) = (   0.4000000   0.2000000   0.0000000), wk =   0.0160000
        k(   45) = (   0.4000000   0.2000000   0.2000000), wk =   0.0160000
        k(   46) = (   0.4000000   0.2000000   0.4000000), wk =   0.0160000
        k(   47) = (   0.4000000   0.2000000  -0.4000000), wk =   0.0160000
        k(   48) = (   0.4000000   0.2000000  -0.2000000), wk =   0.0160000
        k(   49) = (   0.4000000   0.4000000   0.0000000), wk =   0.0160000
        k(   50) = (   0.4000000   0.4000000   0.2000000), wk =   0.0160000
        k(   51) = (   0.4000000   0.4000000   0.4000000), wk =   0.0160000
        k(   52) = (   0.4000000   0.4000000  -0.4000000), wk =   0.0160000
        k(   53) = (   0.4000000   0.4000000  -0.2000000), wk =   0.0160000
        k(   54) = (   0.4000000  -0.4000000   0.0000000), wk =   0.0160000
        k(   55) = (   0.4000000  -0.4000000   0.2000000), wk =   0.0160000
        k(   56) = (   0.4000000  -0.4000000   0.4000000), wk =   0.0160000
        k(   57) = (   0.4000000  -0.4000000  -0.4000000), wk =   0.0160000
        k(   58) = (   0.4000000  -0.4000000  -0.2000000), wk =   0.0160000
        k(   59) = (   0.4000000  -0.2000000   0.0000000), wk =   0.0160000
        k(   60) = (   0.4000000  -0.2000000   0.2000000), wk =   0.0160000
        k(   61) = (   0.4000000  -0.2000000   0.4000000), wk =   0.0160000
        k(   62) = (   0.4000000  -0.2000000  -0.4000000), wk =   0.0160000
        k(   63) = (   0.4000000  -0.2000000  -0.2000000), wk =   0.0160000

     Check: negative core charge=   -0.000007
     Generating pointlists ...
     new r_m :   0.2063 (alat units)  1.8247 (a.u.) for type    1
     new r_m :   0.2063 (alat units)  1.8247 (a.u.) for type    2

     Initial potential from superposition of free atoms

     starting charge  115.99994, renormalised to  128.00000

     negative rho (up, down):  1.789E-03 1.789E-03
     Starting wfcs are   92 randomized atomic wfcs

     Self-consistent Calculation

     iteration #  1     ecut=    90.00 Ry     beta= 0.20
     Davidson diagonalization with overlap
     ethr =  1.00E-02,  avg # of iterations =  5.8

     negative rho (up, down):  1.491E-03 1.489E-03

     total energy              =   -2043.65263069 Ry
     estimated scf accuracy    <     206.84356150 Ry

     total magnetization       =    -0.01 Bohr mag/cell
     absolute magnetization    =     0.02 Bohr mag/cell

[...]

     Magnetic moment per site:
     atom:    1    charge:   16.5030    magn:    0.0841    constr:    0.0000
     atom:    2    charge:   11.8540    magn:   -2.4355    constr:    0.0000
     atom:    3    charge:   16.5030    magn:   -0.0842    constr:    0.0000
     atom:    4    charge:   11.8541    magn:    2.4357    constr:    0.0000
     atom:    5    charge:   16.5030    magn:   -0.0842    constr:    0.0000
     atom:    6    charge:   11.8541    magn:    2.4357    constr:    0.0000
     atom:    7    charge:   16.5030    magn:    0.0842    constr:    0.0000
     atom:    8    charge:   11.8541    magn:   -2.4354    constr:    0.0000

     End of self-consistent calculation

     Number of k-points >= 100: set verbosity='high' to print the bands.

     the Fermi energy is    16.1837 ev

!    total energy              =   -2074.61581510 Ry
     estimated scf accuracy    <          8.5E-09 Ry
     smearing contrib. (-TS)   =      -0.00743368 Ry
     internal energy E=F+TS    =   -2074.60838142 Ry

[...]

     convergence has been achieved in 703 iterations

[...]

     Forces acting on atoms (cartesian axes, Ry/au):

     atom    1 type  1   force =    -0.00000000   -0.00000000   -0.00000000
     atom    2 type  2   force =     0.00000000   -0.00000000    0.00000000
     atom    3 type  1   force =     0.00000000    0.00000000    0.00000000
     atom    4 type  2   force =    -0.00000000   -0.00000000    0.00000000
     atom    5 type  1   force =     0.00000000    0.00000000   -0.00000000
     atom    6 type  2   force =    -0.00000000   -0.00000000    0.00000000
     atom    7 type  1   force =    -0.00000000   -0.00000000   -0.00000000
     atom    8 type  2   force =     0.00000000    0.00000000    0.00000000

     Total force =     0.000000     Total SCF correction =     0.000000

     Computing stress (Cartesian axis) and pressure

     negative rho (up, down):  6.832E-03 6.832E-03
          total   stress  (Ry/bohr**3)                   (kbar)     P=      118.82
   0.00087388  -0.00000000  -0.00000000          128.55       -0.00       -0.00
  -0.00000000   0.00067549  -0.00000000           -0.00       99.37       -0.00
  -0.00000000  -0.00000000   0.00087388           -0.00       -0.00      128.55

     Entering Dynamics;  it =     1   time =  0.00000 pico-seconds

  new lattice vectors (alat unit) :
   1.000068987  -0.000000710  -0.000000055
  -0.000000710   1.000052594   0.000000647
  -0.000000055   0.000000647   1.000069280
  new unit-cell volume =    692.6123 (a.u.)^3
  new positions in cryst coord
Ni      -0.000934768   0.500166044   0.999580244
Cr       0.500044894  -0.000046837   0.499789995
Ni       0.000203044   0.999997818   0.500765555
Cr       0.500148364   0.499709951  -0.000489881
Ni       0.500729220  -0.000503701  -0.000533094
Cr      -0.000217363   0.500261082   0.500696222
Ni       0.500002504   0.500339839   0.500187295
Cr       0.000024105   0.000075803   0.000003664
  new positions in cart coord (alat unit)
Ni      -0.000935242   0.500192997   0.999649819
Cr       0.500079363  -0.000046871   0.499824593
Ni       0.000202320   1.000050736   0.500800895
Cr       0.500182512   0.499735878  -0.000489619
Ni       0.500763764  -0.000504084  -0.000533159
Cr      -0.000217761   0.500287717   0.500731234
Ni       0.500036614   0.500366123   0.500222244
Cr       0.000024107   0.000075807   0.000003665

     Ekin =     0.01995091 Ry    T =    0.0 K  Etot =    -2074.59585948
     new unit-cell volume =    692.61235 a.u.^3 (   102.63456 Ang^3 )
     density =      7.16342 g/cm^3

CELL_PARAMETERS (angstrom)
   4.682022975  -0.000003325  -0.000000257
  -0.000003325   4.681946228   0.000003031
  -0.000000257   0.000003031   4.682024348

ATOMIC_POSITIONS (angstrom)
Ni           -0.0043785241        2.3417535542        4.6800605584
Cr            2.3412215537       -0.0002194357        2.3400287957
Ni            0.0009472017        4.6819375306        2.3445995521
Cr            2.3417044672        2.3396134578       -0.0022922485
Ni            2.3444257151       -0.0023599699       -0.0024960912
Cr           -0.0010194898        2.3421970051        2.3442734182
Ni            2.3410214176        2.3425640775        2.3418904819
Cr            0.0001128614        0.0003549063        0.0000171568

     Writing output data file ./pwscf.save/
     NEW-OLD atomic charge density approx. for the potential

     Check: negative core charge=   -0.000007

     negative rho (up, down):  6.833E-03 6.846E-03
     extrapolated charge  128.02214, renormalised to  128.00000
     Generating pointlists ...

[...]

     negative rho (up, down):  6.879E-03 6.748E-03
     extrapolated charge  128.18466, renormalised to  128.00000
     Generating pointlists ...
     new r_m :   0.2039 (alat units)  1.8043 (a.u.) for type    1
     new r_m :   0.2039 (alat units)  1.8043 (a.u.) for type    2

[...]

     iteration #  9     ecut=    90.00 Ry     beta= 0.20
     Davidson diagonalization with overlap
     c_bands:  1 eigenvalues not converged
     ethr =  9.24E-07,  avg # of iterations =  3.7

[...]

     iteration #  9     ecut=    90.00 Ry     beta= 0.20
     Davidson diagonalization with overlap
     c_bands:  1 eigenvalues not converged
     ethr =  7.88E-07,  avg # of iterations =  3.8

[...]

     Threshold (ethr) on eigenvalues was too large:
     Diagonalizing with lowered threshold

     Davidson diagonalization with overlap
     ethr =  8.52E-08,  avg # of iterations =  2.1

[...]

     Writing output data file ./pwscf.save/
     NEW-OLD atomic charge density approx. for the potential

     Check: negative core charge=   -0.000006

     negative rho (up, down):  7.495E-03 7.576E-03
     extrapolated charge  127.58823, renormalised to  128.00000
     Generating pointlists ...

     Self-consistent Calculation

[...]

     total energy              =   -2074.72488603 Ry
     estimated scf accuracy    <       0.00000002 Ry

[...]

     iteration # 38     ecut=    90.00 Ry     beta= 0.20
     Davidson diagonalization with overlap
     ethr =  1.25E-11,  avg # of iterations =  1.2

[...]

     Magnetic moment per site:
     atom:    1    charge:   16.3504    magn:    0.1067    constr:    0.0000
     atom:    2    charge:   11.7294    magn:   -2.6017    constr:    0.0000
     atom:    3    charge:   16.3586    magn:   -0.0282    constr:    0.0000
     atom:    4    charge:   11.7265    magn:    2.5959    constr:    0.0000
     atom:    5    charge:   16.3309    magn:   -0.0317    constr:    0.0000
     atom:    6    charge:   11.7371    magn:    2.6137    constr:    0.0000
     atom:    7    charge:   16.3654    magn:    0.0130    constr:    0.0000
     atom:    8    charge:   11.7239    magn:   -2.5951    constr:    0.0000

     End of self-consistent calculation

     Number of k-points >= 100: set verbosity='high' to print the bands.

     the Fermi energy is    14.5069 ev

!    total energy              =   -2074.72488602 Ry
     estimated scf accuracy    <          9.9E-09 Ry
     smearing contrib. (-TS)   =      -0.00721697 Ry
     internal energy E=F+TS    =   -2074.71766905 Ry

     total magnetization       =     0.06 Bohr mag/cell
     absolute magnetization    =    12.95 Bohr mag/cell

     convergence has been achieved in  38 iterations

     negative rho (up, down):  7.453E-03 7.531E-03

     Forces acting on atoms (cartesian axes, Ry/au):

     atom    1 type  1   force =    -0.02984579    0.02026803   -0.00747859
     atom    2 type  2   force =     0.00242240    0.01365487   -0.01729065
     atom    3 type  1   force =    -0.00768859   -0.00930946    0.02916393
     atom    4 type  2   force =    -0.01909638   -0.00858013    0.00057780
     atom    5 type  1   force =     0.02660174   -0.02825194   -0.02620716
     atom    6 type  2   force =     0.00732474   -0.00936527   -0.01084179
     atom    7 type  1   force =     0.00890617    0.02076035    0.00983923
     atom    8 type  2   force =     0.01137571    0.00082354    0.02223723

     Total force =     0.083468     Total SCF correction =     0.000117

     Computing stress (Cartesian axis) and pressure

     negative rho (up, down):  7.453E-03 7.531E-03
          total   stress  (Ry/bohr**3)                   (kbar)     P=      -31.43
  -0.00028990   0.00011677   0.00006253          -42.65       17.18        9.20
   0.00011677  -0.00003966  -0.00004680           17.18       -5.83       -6.88
   0.00006253  -0.00004680  -0.00031139            9.20       -6.88      -45.81

     Entering Dynamics;  it =   102   time =  0.09772 pico-seconds

  new lattice vectors (alat unit) :
   1.034994949   0.012191978   0.001613176
   0.012191978   1.005739430  -0.001308380
   0.001613176  -0.001308380   1.040049566
  new unit-cell volume =    749.5857 (a.u.)^3
  new positions in cryst coord
Ni      -0.056480950   0.524343428   1.007028845
Cr       0.506324639   0.030046267   0.446948914
Ni       0.008348357   1.006875224   0.551279843
Cr       0.440747374   0.439207214  -0.007170809
Ni       0.552992846  -0.057171653  -0.048814998
Cr      -0.003308146   0.505475163   0.504291196
Ni       0.496203575   0.526517339   0.491578602
Cr       0.055035288   0.024634333   0.054720301
  new positions in cart coord (alat unit)
Ni      -0.050440199   0.525346669   1.046582759
Cr       0.525130775   0.035807035   0.465626503
Ni       0.021805619   1.012034613   0.572054453
Cr       0.461514542   0.447110977  -0.007321644
Ni       0.571569019  -0.050693841  -0.049803141
Cr       0.003552338   0.507676164   0.523821149
Ni       0.520780484   0.534945780   0.511377690
Cr       0.057349860   0.025375114   0.056968376

     Ekin =     0.03382482 Ry    T =  383.8 K  Etot =    -2074.69105609
     new unit-cell volume =    749.58569 a.u.^3 (   111.07714 Ang^3 )
     density =      6.61895 g/cm^3

CELL_PARAMETERS (angstrom)
   4.845535852   0.057079182   0.007552408
   0.057079182   4.708570288  -0.006125445
   0.007552408  -0.006125445   4.869200055

ATOMIC_POSITIONS (angstrom)
Ni           -0.2361458788        2.4595155007        4.8997865039
Cr            2.4585047481        0.1676377963        2.1799235994
Ni            0.1020873676        4.7380424466        2.6781873344
Cr            2.1606726325        2.0932394603       -0.0342777393
Ni            2.6759146781       -0.2373333533       -0.2331633634
Cr            0.0166309811        2.3767874979        2.4523734746
Ni            2.4381379929        2.5044556572        2.3941169326
Cr            0.2684948405        0.1187986733        0.2667088437

     Maximum number of iterations reached, stopping

     General routines

     Parallel routines

   This run was terminated on:  22:10:12  10Feb2022

   JOB DONE.
Note: The following floating-point exceptions are signalling: IEEE_UNDERFLOW_FLAG IEEE_DENORMAL
Note: The following floating-point exceptions are signalling: IEEE_UNDERFLOW_FLAG IEEE_DENORMAL
Note: The following floating-point exceptions are signalling: IEEE_UNDERFLOW_FLAG IEEE_DENORMAL
Note: The following floating-point exceptions are signalling: IEEE_UNDERFLOW_FLAG IEEE_DENORMAL
Note: The following floating-point exceptions are signalling: IEEE_UNDERFLOW_FLAG IEEE_DENORMAL
Note: The following floating-point exceptions are signalling: IEEE_UNDERFLOW_FLAG IEEE_DENORMAL
Note: The following floating-point exceptions are signalling: IEEE_UNDERFLOW_FLAG IEEE_DENORMAL
Note: The following floating-point exceptions are signalling: IEEE_UNDERFLOW_FLAG IEEE_DENORMAL
Note: The following floating-point exceptions are signalling: IEEE_UNDERFLOW_FLAG IEEE_DENORMAL
Note: The following floating-point exceptions are signalling: IEEE_UNDERFLOW_FLAG IEEE_DENORMAL
Note: The following floating-point exceptions are signalling: IEEE_UNDERFLOW_FLAG IEEE_DENORMAL
Note: The following floating-point exceptions are signalling: IEEE_UNDERFLOW_FLAG IEEE_DENORMAL
Note: The following floating-point exceptions are signalling: IEEE_UNDERFLOW_FLAG IEEE_DENORMAL
Note: The following floating-point exceptions are signalling: IEEE_UNDERFLOW_FLAG IEEE_DENORMAL
Note: The following floating-point exceptions are signalling: IEEE_UNDERFLOW_FLAG IEEE_DENORMAL
Note: The following floating-point exceptions are signalling: IEEE_UNDERFLOW_FLAG IEEE_DENORMAL
Note: The following floating-point exceptions are signalling: IEEE_UNDERFLOW_FLAG IEEE_DENORMAL
Note: The following floating-point exceptions are signalling: IEEE_UNDERFLOW_FLAG IEEE_DENORMAL
Note: The following floating-point exceptions are signalling: IEEE_UNDERFLOW_FLAG IEEE_DENORMAL
Note: The following floating-point exceptions are signalling: IEEE_UNDERFLOW_FLAG IEEE_DENORMAL
Note: The following floating-point exceptions are signalling: IEEE_UNDERFLOW_FLAG IEEE_DENORMAL
Note: The following floating-point exceptions are signalling: IEEE_UNDERFLOW_FLAG IEEE_DENORMAL
Note: The following floating-point exceptions are signalling: IEEE_UNDERFLOW_FLAG IEEE_DENORMAL
Note: The following floating-point exceptions are signalling: IEEE_UNDERFLOW_FLAG IEEE_DENORMAL