     Program PWSCF v.6.7MaX starts on  9Feb2022 at 11: 8:57

     R & G space division:  proc/nbgrp/npool/nimage =      24
     Reading input from /home/kevin/QE_CoCrFeMnNi/CoCrFeMnNi/Opt/binary/Opt-B1-CrNi/Mix/MD/600K_0.0001Gpa-B1-CrNi/600K_0.0001Gpa-B1-CrNi.in

     Current dimensions of program PWSCF are:
     Max number of different atomic species (ntypx) = 10
     Max number of k-points (npk) =  40000
     Max angular momentum in pseudopotentials (lmaxx) =  3

     Subspace diagonalization in iterative solution of the eigenvalue problem:
     a serial algorithm will be used

     Found symmetry operation: I + (  0.0000 -0.5000  0.5000)
     This is a supercell, fractional translations are disabled

     bravais-lattice index     =            0
     lattice parameter (alat)  =       8.8471  a.u.
     unit-cell volume          =     692.4802 (a.u.)^3
     number of atoms/cell      =            8
     number of atomic types    =            2
     number of electrons       =       128.00
     number of Kohn-Sham states=           77
     kinetic-energy cutoff     =      90.0000  Ry
     charge density cutoff     =    1080.0000  Ry
     scf convergence threshold =      1.0E-08
     mixing beta               =       0.2000
     number of iterations used =            4  plain     mixing
     energy convergence thresh.=      0.0E+00
     force convergence thresh. =      0.0E+00
     press convergence thresh. =      0.0E+00
     Exchange-correlation=  SLA  PW   PBX  PBC
                           (   1   4   3   4   0   0   0)
     nstep                     =          102

     celldm(1)=   8.847131  celldm(2)=   0.000000  celldm(3)=   0.000000
     celldm(4)=   0.000000  celldm(5)=   0.000000  celldm(6)=   0.000000

     crystal axes: (cart. coord. in units of alat)
               a(1) = (   1.000000   0.000000   0.000000 )
               a(2) = (   0.000000   1.000000   0.000000 )
               a(3) = (   0.000000   0.000000   1.000000 )

     reciprocal axes: (cart. coord. in units 2 pi/alat)
               b(1) = (  1.000000  0.000000  0.000000 )
               b(2) = (  0.000000  1.000000  0.000000 )
               b(3) = (  0.000000  0.000000  1.000000 )

     PseudoPot. # 1 for Ni read from file:
     /opt/QEpot/SSSP_efficiency_pseudos/ni_pbe_v1.4.uspp.F.UPF
     MD5 check sum: 1ee80287db30b12d2bc1f57a5b5d6409
     Pseudo is Ultrasoft + core correction, Zval = 18.0
     Generated by new atomic code, or converted to UPF format
     Using radial grid of  865 points,  6 beta functions with:
                l(1) =   0
                l(2) =   0
                l(3) =   1
                l(4) =   1
                l(5) =   2
                l(6) =   2
     Q(r) pseudized with 10 coefficients,  rinner =    0.980   0.980   0.980
                                                       0.980   0.980

     PseudoPot. # 2 for Cr read from file:
     /opt/QEpot/SSSP_efficiency_pseudos/cr_pbe_v1.5.uspp.F.UPF
     MD5 check sum: 0d52af634a40206e4dee301ad30da4bf
     Pseudo is Ultrasoft + core correction, Zval = 14.0
     Generated by new atomic code, or converted to UPF format
     Using radial grid of  857 points,  6 beta functions with:
                l(1) =   0
                l(2) =   0
                l(3) =   1
                l(4) =   1
                l(5) =   2
                l(6) =   2
     Q(r) pseudized with  8 coefficients,  rinner =    0.950   0.950   0.950
                                                       0.950   0.950

     atomic species   valence    mass     pseudopotential
        Ni            18.00    58.69300     Ni( 1.00)
        Cr            14.00    51.99610     Cr( 1.00)

      cell mass =  33.64545 AMU

     Starting magnetic structure
     atomic species   magnetization
        Ni           0.000
        Cr           0.000

     No symmetry found

   Cartesian axes

     site n.     atom                  positions (alat units)
         1           Ni  tau(   1) = (   0.0000000   0.5000000   1.0000000  )
         2           Cr  tau(   2) = (   0.5000000   0.0000000   0.5000000  )
         3           Ni  tau(   3) = (   0.0000000   1.0000000   0.5000000  )
         4           Cr  tau(   4) = (   0.5000000   0.5000000   0.0000000  )
         5           Ni  tau(   5) = (   0.5000000   0.0000000   0.0000000  )
         6           Cr  tau(   6) = (   0.0000000   0.5000000   0.5000000  )
         7           Ni  tau(   7) = (   0.5000000   0.5000000   0.5000000  )
         8           Cr  tau(   8) = (   0.0000000   0.0000000   0.0000000  )

     number of k points=    63  Gaussian smearing, width (Ry)=  0.0100
                       cart. coord. in units 2pi/alat
        k(    1) = (   0.0000000   0.0000000   0.0000000), wk =   0.0080000
        k(    2) = (   0.0000000   0.0000000   0.2000000), wk =   0.0160000
        k(    3) = (   0.0000000   0.0000000   0.4000000), wk =   0.0160000
        k(    4) = (   0.0000000   0.2000000   0.0000000), wk =   0.0160000
        k(    5) = (   0.0000000   0.2000000   0.2000000), wk =   0.0160000
        k(    6) = (   0.0000000   0.2000000   0.4000000), wk =   0.0160000
        k(    7) = (   0.0000000   0.2000000  -0.4000000), wk =   0.0160000
        k(    8) = (   0.0000000   0.2000000  -0.2000000), wk =   0.0160000
        k(    9) = (   0.0000000   0.4000000   0.0000000), wk =   0.0160000
        k(   10) = (   0.0000000   0.4000000   0.2000000), wk =   0.0160000
        k(   11) = (   0.0000000   0.4000000   0.4000000), wk =   0.0160000
        k(   12) = (   0.0000000   0.4000000  -0.4000000), wk =   0.0160000
        k(   13) = (   0.0000000   0.4000000  -0.2000000), wk =   0.0160000
        k(   14) = (   0.2000000   0.0000000   0.0000000), wk =   0.0160000
        k(   15) = (   0.2000000   0.0000000   0.2000000), wk =   0.0160000
        k(   16) = (   0.2000000   0.0000000   0.4000000), wk =   0.0160000
        k(   17) = (   0.2000000   0.0000000  -0.4000000), wk =   0.0160000
        k(   18) = (   0.2000000   0.0000000  -0.2000000), wk =   0.0160000
        k(   19) = (   0.2000000   0.2000000   0.0000000), wk =   0.0160000
        k(   20) = (   0.2000000   0.2000000   0.2000000), wk =   0.0160000
        k(   21) = (   0.2000000   0.2000000   0.4000000), wk =   0.0160000
        k(   22) = (   0.2000000   0.2000000  -0.4000000), wk =   0.0160000
        k(   23) = (   0.2000000   0.2000000  -0.2000000), wk =   0.0160000
        k(   24) = (   0.2000000   0.4000000   0.0000000), wk =   0.0160000
        k(   25) = (   0.2000000   0.4000000   0.2000000), wk =   0.0160000
        k(   26) = (   0.2000000   0.4000000   0.4000000), wk =   0.0160000
        k(   27) = (   0.2000000   0.4000000  -0.4000000), wk =   0.0160000
        k(   28) = (   0.2000000   0.4000000  -0.2000000), wk =   0.0160000
        k(   29) = (   0.2000000  -0.4000000   0.0000000), wk =   0.0160000
        k(   30) = (   0.2000000  -0.4000000   0.2000000), wk =   0.0160000
        k(   31) = (   0.2000000  -0.4000000   0.4000000), wk =   0.0160000
        k(   32) = (   0.2000000  -0.4000000  -0.4000000), wk =   0.0160000
        k(   33) = (   0.2000000  -0.4000000  -0.2000000), wk =   0.0160000
        k(   34) = (   0.2000000  -0.2000000   0.0000000), wk =   0.0160000
        k(   35) = (   0.2000000  -0.2000000   0.2000000), wk =   0.0160000
        k(   36) = (   0.2000000  -0.2000000   0.4000000), wk =   0.0160000
        k(   37) = (   0.2000000  -0.2000000  -0.4000000), wk =   0.0160000
        k(   38) = (   0.2000000  -0.2000000  -0.2000000), wk =   0.0160000
        k(   39) = (   0.4000000   0.0000000   0.0000000), wk =   0.0160000
        k(   40) = (   0.4000000   0.0000000   0.2000000), wk =   0.0160000
        k(   41) = (   0.4000000   0.0000000   0.4000000), wk =   0.0160000
        k(   42) = (   0.4000000   0.0000000  -0.4000000), wk =   0.0160000
        k(   43) = (   0.4000000   0.0000000  -0.2000000), wk =   0.0160000
        k(   44) = (   0.4000000   0.2000000   0.0000000), wk =   0.0160000
        k(   45) = (   0.4000000   0.2000000   0.2000000), wk =   0.0160000
        k(   46) = (   0.4000000   0.2000000   0.4000000), wk =   0.0160000
        k(   47) = (   0.4000000   0.2000000  -0.4000000), wk =   0.0160000
        k(   48) = (   0.4000000   0.2000000  -0.2000000), wk =   0.0160000
        k(   49) = (   0.4000000   0.4000000   0.0000000), wk =   0.0160000
        k(   50) = (   0.4000000   0.4000000   0.2000000), wk =   0.0160000
        k(   51) = (   0.4000000   0.4000000   0.4000000), wk =   0.0160000
        k(   52) = (   0.4000000   0.4000000  -0.4000000), wk =   0.0160000
        k(   53) = (   0.4000000   0.4000000  -0.2000000), wk =   0.0160000
        k(   54) = (   0.4000000  -0.4000000   0.0000000), wk =   0.0160000
        k(   55) = (   0.4000000  -0.4000000   0.2000000), wk =   0.0160000
        k(   56) = (   0.4000000  -0.4000000   0.4000000), wk =   0.0160000
        k(   57) = (   0.4000000  -0.4000000  -0.4000000), wk =   0.0160000
        k(   58) = (   0.4000000  -0.4000000  -0.2000000), wk =   0.0160000
        k(   59) = (   0.4000000  -0.2000000   0.0000000), wk =   0.0160000
        k(   60) = (   0.4000000  -0.2000000   0.2000000), wk =   0.0160000
        k(   61) = (   0.4000000  -0.2000000   0.4000000), wk =   0.0160000
        k(   62) = (   0.4000000  -0.2000000  -0.4000000), wk =   0.0160000
        k(   63) = (   0.4000000  -0.2000000  -0.2000000), wk =   0.0160000

     Check: negative core charge=   -0.000007
     Generating pointlists ...
     new r_m :   0.2063 (alat units)  1.8247 (a.u.) for type    1
     new r_m :   0.2063 (alat units)  1.8247 (a.u.) for type    2

     Initial potential from superposition of free atoms

     starting charge  115.99994, renormalised to  128.00000

     negative rho (up, down):  1.789E-03 1.789E-03
     Starting wfcs are   92 randomized atomic wfcs

     Self-consistent Calculation

     iteration #  1     ecut=    90.00 Ry     beta= 0.20
     Davidson diagonalization with overlap
     ethr =  1.00E-02,  avg # of iterations =  5.8

     negative rho (up, down):  1.491E-03 1.489E-03

     total energy              =   -2043.65263069 Ry
     estimated scf accuracy    <     206.84356150 Ry

     total magnetization       =    -0.01 Bohr mag/cell
     absolute magnetization    =     0.02 Bohr mag/cell

[...]

     Magnetic moment per site:
     atom:    1    charge:   16.5030    magn:    0.0841    constr:    0.0000
     atom:    2    charge:   11.8540    magn:   -2.4355    constr:    0.0000
     atom:    3    charge:   16.5030    magn:   -0.0842    constr:    0.0000
     atom:    4    charge:   11.8541    magn:    2.4357    constr:    0.0000
     atom:    5    charge:   16.5030    magn:   -0.0842    constr:    0.0000
     atom:    6    charge:   11.8541    magn:    2.4357    constr:    0.0000
     atom:    7    charge:   16.5030    magn:    0.0842    constr:    0.0000
     atom:    8    charge:   11.8541    magn:   -2.4354    constr:    0.0000

     End of self-consistent calculation

     Number of k-points >= 100: set verbosity='high' to print the bands.

     the Fermi energy is    16.1837 ev

!    total energy              =   -2074.61581510 Ry
     estimated scf accuracy    <          8.5E-09 Ry
     smearing contrib. (-TS)   =      -0.00743368 Ry
     internal energy E=F+TS    =   -2074.60838142 Ry

[...]

     convergence has been achieved in 703 iterations

[...]

     Forces acting on atoms (cartesian axes, Ry/au):

     atom    1 type  1   force =    -0.00000000   -0.00000000   -0.00000000
     atom    2 type  2   force =     0.00000000   -0.00000000    0.00000000
     atom    3 type  1   force =     0.00000000    0.00000000    0.00000000
     atom    4 type  2   force =    -0.00000000   -0.00000000    0.00000000
     atom    5 type  1   force =     0.00000000    0.00000000   -0.00000000
     atom    6 type  2   force =    -0.00000000   -0.00000000    0.00000000
     atom    7 type  1   force =    -0.00000000   -0.00000000   -0.00000000
     atom    8 type  2   force =     0.00000000    0.00000000    0.00000000

     Total force =     0.000000     Total SCF correction =     0.000000

     Computing stress (Cartesian axis) and pressure

     negative rho (up, down):  6.832E-03 6.832E-03
          total   stress  (Ry/bohr**3)                   (kbar)     P=      118.82
   0.00087388  -0.00000000  -0.00000000          128.55       -0.00       -0.00
  -0.00000000   0.00067549  -0.00000000           -0.00       99.37       -0.00
  -0.00000000  -0.00000000   0.00087388           -0.00       -0.00      128.55

     Entering Dynamics;  it =     1   time =  0.00000 pico-seconds

  new lattice vectors (alat unit) :
   1.000070743  -0.000001421  -0.000000110
  -0.000001421   1.000053220   0.000001295
  -0.000000110   0.000001295   1.000071330
  new unit-cell volume =    692.6154 (a.u.)^3
  new positions in cryst coord
Ni      -0.001321961   0.500234821   0.999406376
Cr       0.500063490  -0.000066237   0.499703008
Ni       0.000287147   0.999996915   0.501082658
Cr       0.500209818   0.499589809  -0.000692796
Ni       0.501031273  -0.000712341  -0.000753909
Cr      -0.000307397   0.500369226   0.500984606
Ni       0.500003541   0.500480606   0.500264875
Cr       0.000034090   0.000107202   0.000005182
  new positions in cart coord (alat unit)
Ni      -0.001322875   0.500262740   0.999478311
Cr       0.500098811  -0.000066304   0.499738596
Ni       0.000285692   1.000050783   0.501119695
Cr       0.500244495   0.499615686  -0.000692254
Ni       0.501066719  -0.000713092  -0.000754019
Cr      -0.000308185   0.500396505   0.501020990
Ni       0.500038147   0.500507179   0.500301152
Cr       0.000034092   0.000107208   0.000005183

     Ekin =     0.03990183 Ry    T =    0.0 K  Etot =    -2074.57590857
     new unit-cell volume =    692.61542 a.u.^3 (   102.63502 Ang^3 )
     density =      7.16339 g/cm^3

CELL_PARAMETERS (angstrom)
   4.682031199  -0.000006651  -0.000000514
  -0.000006651   4.681949161   0.000006062
  -0.000000514   0.000006062   4.682033945

ATOMIC_POSITIONS (angstrom)
Ni           -0.0061933042        2.3420800684        4.6792576101
Cr            2.3413126035       -0.0003104165        2.3396261872
Ni            0.0013375243        4.6819377513        2.3460920770
Cr            2.3419946501        2.3390507583       -0.0032409244
Ni            2.3458440575       -0.0033384832       -0.0035300909
Cr           -0.0014428295        2.3427063169        2.3456299666
Ni            2.3410285919        2.3432244587        2.3422599039
Cr            0.0001596101        0.0005019136        0.0000242637

     Writing output data file ./pwscf.save/
     NEW-OLD atomic charge density approx. for the potential

     Check: negative core charge=   -0.000007

     negative rho (up, down):  6.834E-03 6.850E-03
     extrapolated charge  128.02265, renormalised to  128.00000
     Generating pointlists ...

[...]

     Total force =     0.006120     Total SCF correction =     0.000889
     SCF correction compared to forces is large: reduce conv_thr to get better values

[...]

     negative rho (up, down):  6.854E-03 6.728E-03
     extrapolated charge  128.12973, renormalised to  128.00000
     Generating pointlists ...
     new r_m :   0.2036 (alat units)  1.8014 (a.u.) for type    1
     new r_m :   0.2036 (alat units)  1.8014 (a.u.) for type    2

[...]

     negative rho (up, down):  6.967E-03 6.958E-03
     extrapolated charge  128.40191, renormalised to  128.00000
     Generating pointlists ...
     new r_m :   0.1993 (alat units)  1.7635 (a.u.) for type    1
     new r_m :   0.1993 (alat units)  1.7635 (a.u.) for type    2

[...]

     iteration #  9     ecut=    90.00 Ry     beta= 0.20
     Davidson diagonalization with overlap
     c_bands:  1 eigenvalues not converged
     ethr =  1.53E-06,  avg # of iterations =  3.4

[...]

     iteration #  9     ecut=    90.00 Ry     beta= 0.20
     Davidson diagonalization with overlap
     c_bands:  1 eigenvalues not converged
     ethr =  8.91E-07,  avg # of iterations =  2.8

[...]

     Writing output data file ./pwscf.save/
     NEW-OLD atomic charge density approx. for the potential

     Check: negative core charge=   -0.000006

     negative rho (up, down):  7.014E-03 7.151E-03
     extrapolated charge  127.44012, renormalised to  128.00000
     Generating pointlists ...

     Self-consistent Calculation

[...]

     total energy              =   -2074.77330000 Ry
     estimated scf accuracy    <       0.00000002 Ry

[...]

     iteration # 39     ecut=    90.00 Ry     beta= 0.20
     Davidson diagonalization with overlap
     ethr =  1.38E-11,  avg # of iterations =  1.0

[...]

     Magnetic moment per site:
     atom:    1    charge:   16.2333    magn:    0.1108    constr:    0.0000
     atom:    2    charge:   11.6206    magn:   -2.4417    constr:    0.0000
     atom:    3    charge:   16.2364    magn:   -0.0113    constr:    0.0000
     atom:    4    charge:   11.6217    magn:    2.4248    constr:    0.0000
     atom:    5    charge:   16.2044    magn:    0.0372    constr:    0.0000
     atom:    6    charge:   11.6337    magn:    2.5089    constr:    0.0000
     atom:    7    charge:   16.2488    magn:    0.0052    constr:    0.0000
     atom:    8    charge:   11.6208    magn:   -2.4097    constr:    0.0000

     End of self-consistent calculation

     Number of k-points >= 100: set verbosity='high' to print the bands.

     the Fermi energy is    15.0700 ev

!    total energy              =   -2074.77330000 Ry
     estimated scf accuracy    <          6.6E-09 Ry
     smearing contrib. (-TS)   =      -0.00641680 Ry
     internal energy E=F+TS    =   -2074.76688321 Ry

     total magnetization       =     0.23 Bohr mag/cell
     absolute magnetization    =    12.30 Bohr mag/cell

     convergence has been achieved in  39 iterations

     negative rho (up, down):  6.948E-03 7.083E-03

     Forces acting on atoms (cartesian axes, Ry/au):

     atom    1 type  1   force =    -0.02319694    0.00905988   -0.00340297
     atom    2 type  2   force =     0.01623150    0.01079755   -0.00996468
     atom    3 type  1   force =    -0.00218113   -0.01159799    0.03487300
     atom    4 type  2   force =    -0.01261353    0.00257815   -0.00439642
     atom    5 type  1   force =     0.01059023   -0.01767280   -0.02771873
     atom    6 type  2   force =     0.00777028   -0.01168451   -0.01386535
     atom    7 type  1   force =     0.00783936    0.02787867    0.01011974
     atom    8 type  2   force =    -0.00443978   -0.00935896    0.01435541

     Total force =     0.074081     Total SCF correction =     0.000074

     Computing stress (Cartesian axis) and pressure

     negative rho (up, down):  6.948E-03 7.083E-03
          total   stress  (Ry/bohr**3)                   (kbar)     P=      -25.07
  -0.00023989   0.00005962   0.00012752          -35.29        8.77       18.76
   0.00005962   0.00005289  -0.00006521            8.77        7.78       -9.59
   0.00012752  -0.00006521  -0.00032423           18.76       -9.59      -47.70

     Entering Dynamics;  it =   102   time =  0.09772 pico-seconds

  new lattice vectors (alat unit) :
   1.022782892   0.020382632   0.005951664
   0.020382632   0.994236958  -0.002136970
   0.005951664  -0.002136970   1.032714070
  new unit-cell volume =    726.8865 (a.u.)^3
  new positions in cryst coord
Ni      -0.080206593   0.534808980   1.012319142
Cr       0.512792914   0.042698861   0.424958292
Ni       0.014669857   1.011154387   0.573722167
Cr       0.416468823   0.415875831  -0.013682816
Ni       0.575520006  -0.081594758  -0.070547758
Cr      -0.005131231   0.507627849   0.506562166
Ni       0.492946849   0.537529742   0.487871943
Cr       0.072561987   0.031654609   0.078363402
  new positions in cart coord (alat unit)
Ni      -0.065108134   0.527928736   1.043815988
Cr       0.527875344   0.051996731   0.441821132
Ni       0.039028668   1.004400045   0.590417457
Cr       0.434352395   0.421997092  -0.012540469
Ni       0.586549024  -0.069243153  -0.069255996
Cr       0.008113544   0.503515272   0.522018551
Ni       0.518037525   0.543436922   0.505617388
Cr       0.075326755   0.032783726   0.081291207

     Ekin =     0.05996772 Ry    T =  676.3 K  Etot =    -2074.71332732
     new unit-cell volume =    726.88651 a.u.^3 (   107.71347 Ang^3 )
     density =      6.82565 g/cm^3

CELL_PARAMETERS (angstrom)
   4.788362667   0.095425368   0.027863903
   0.095425368   4.654719168  -0.010004655
   0.027863903  -0.010004655   4.834857462

ATOMIC_POSITIONS (angstrom)
Ni           -0.3048167497        2.4716039655        4.8868333090
Cr            2.4713539982        0.2434330962        2.0684739926
Ni            0.1827205153        4.7022996901        2.7641574107
Cr            2.0335076100        1.9756637838       -0.0587107131
Ni            2.7460465659       -0.3241756695       -0.3242357946
Cr            0.0379851773        2.3573074485        2.4439342510
Ni            2.4252962802        2.5442086362        2.3671489258
Cr            0.3526572705        0.1534835696        0.3805810455

     Maximum number of iterations reached, stopping

     General routines

     Parallel routines

   This run was terminated on:  10:22:23  11Feb2022

   JOB DONE.
Note: The following floating-point exceptions are signalling: IEEE_UNDERFLOW_FLAG IEEE_DENORMAL
Note: The following floating-point exceptions are signalling: IEEE_UNDERFLOW_FLAG IEEE_DENORMAL
Note: The following floating-point exceptions are signalling: IEEE_UNDERFLOW_FLAG IEEE_DENORMAL
Note: The following floating-point exceptions are signalling: IEEE_UNDERFLOW_FLAG IEEE_DENORMAL
Note: The following floating-point exceptions are signalling: IEEE_UNDERFLOW_FLAG IEEE_DENORMAL
Note: The following floating-point exceptions are signalling: IEEE_UNDERFLOW_FLAG IEEE_DENORMAL
Note: The following floating-point exceptions are signalling: IEEE_UNDERFLOW_FLAG IEEE_DENORMAL
Note: The following floating-point exceptions are signalling: IEEE_UNDERFLOW_FLAG IEEE_DENORMAL
Note: The following floating-point exceptions are signalling: IEEE_UNDERFLOW_FLAG IEEE_DENORMAL
Note: The following floating-point exceptions are signalling: IEEE_UNDERFLOW_FLAG IEEE_DENORMAL
Note: The following floating-point exceptions are signalling: IEEE_UNDERFLOW_FLAG IEEE_DENORMAL
Note: The following floating-point exceptions are signalling: IEEE_UNDERFLOW_FLAG IEEE_DENORMAL
Note: The following floating-point exceptions are signalling: IEEE_UNDERFLOW_FLAG IEEE_DENORMAL
Note: The following floating-point exceptions are signalling: IEEE_UNDERFLOW_FLAG IEEE_DENORMAL
Note: The following floating-point exceptions are signalling: IEEE_UNDERFLOW_FLAG IEEE_DENORMAL
Note: The following floating-point exceptions are signalling: IEEE_UNDERFLOW_FLAG IEEE_DENORMAL
Note: The following floating-point exceptions are signalling: IEEE_UNDERFLOW_FLAG IEEE_DENORMAL
Note: The following floating-point exceptions are signalling: IEEE_UNDERFLOW_FLAG IEEE_DENORMAL
Note: The following floating-point exceptions are signalling: IEEE_UNDERFLOW_FLAG IEEE_DENORMAL
Note: The following floating-point exceptions are signalling: IEEE_UNDERFLOW_FLAG IEEE_DENORMAL
Note: The following floating-point exceptions are signalling: IEEE_UNDERFLOW_FLAG IEEE_DENORMAL
Note: The following floating-point exceptions are signalling: IEEE_UNDERFLOW_FLAG IEEE_DENORMAL
Note: The following floating-point exceptions are signalling: IEEE_UNDERFLOW_FLAG IEEE_DENORMAL
Note: The following floating-point exceptions are signalling: IEEE_UNDERFLOW_FLAG IEEE_DENORMAL