     Program PWSCF v.6.7MaX starts on 16May2022 at 22:53: 9

     R & G space division:  proc/nbgrp/npool/nimage =       4
     Reading input from Fe_mp-13.in

     Current dimensions of program PWSCF are:
     Max number of different atomic species (ntypx) = 10
     Max number of k-points (npk) =  40000
     Max angular momentum in pseudopotentials (lmaxx) =  3
     file Fe.pbe-spn-kjpaw_psl.0.2.1.UPF: wavefunction(s)  3D renormalized

     Subspace diagonalization in iterative solution of the eigenvalue problem:
     a serial algorithm will be used

     bravais-lattice index     =            0
     lattice parameter (alat)  =       4.6479  a.u.
     unit-cell volume          =      77.2939 (a.u.)^3
     number of atoms/cell      =            1
     number of atomic types    =            1
     number of electrons       =        16.00
     number of Kohn-Sham states=           12
     kinetic-energy cutoff     =      90.0000  Ry
     charge density cutoff     =    1080.0000  Ry
     scf convergence threshold =      1.0E-08
     mixing beta               =       0.2000
     number of iterations used =            8  plain     mixing
     energy convergence thresh.=      1.0E-05
     force convergence thresh. =      1.0E-04
     press convergence thresh. =      1.0E-01
     Exchange-correlation= SLA  PW   PBX  PBC
                           (   1   4   3   4   0   0   0)
     nstep                     =         1000

     celldm(1)=   4.647914  celldm(2)=   0.000000  celldm(3)=   0.000000
     celldm(4)=   0.000000  celldm(5)=   0.000000  celldm(6)=   0.000000

     crystal axes: (cart. coord. in units of alat)
               a(1) = (   1.000000   0.000000   0.000000 )
               a(2) = (  -0.333269   0.942737   0.000000 )
               a(3) = (  -0.333216  -0.471089   0.816545 )

     reciprocal axes: (cart. coord. in units 2 pi/alat)
               b(1) = (  1.000000  0.353512  0.612031 )
               b(2) = ( -0.000000  1.060741  0.611973 )
               b(3) = (  0.000000 -0.000000  1.224672 )

     PseudoPot. # 1 for Fe read from file:
     /opt/QEpot/SSSP_precision_pseudos/Fe.pbe-spn-kjpaw_psl.0.2.1.UPF
     MD5 check sum: e86618425769142926afa95317d90200
     Pseudo is Projector augmented-wave + core cor, Zval = 16.0
     Generated using "atomic" code by A. Dal Corso  v.5.0.99 svn rev. 10869
     Shape of augmentation charge: PSQ
     Using radial grid of 1191 points,  6 beta functions with:
                l(1) =   0
                l(2) =   0
                l(3) =   1
                l(4) =   1
                l(5) =   2
                l(6) =   2
     Q(r) pseudized with 0 coefficients

     atomic species   valence    mass     pseudopotential
        Fe            16.00    55.84500     Fe( 1.00)

     Starting magnetic structure
     atomic species   magnetization
        Fe           0.200

     No symmetry found

   Cartesian axes

     site n.     atom                  positions (alat units)
         1           Fe  tau(   1) = (   0.0000000   0.0000000   0.0000000  )

     number of k points=    63  Gaussian smearing, width (Ry)=  0.0100
                       cart. coord. in units 2pi/alat
        k(    1) = (   0.0000000   0.0000000   0.0000000), wk =   0.0080000
        k(    2) = (   0.0000000   0.0000000   0.2449343), wk =   0.0160000
        k(    3) = (   0.0000000   0.0000000   0.4898687), wk =   0.0160000
        k(    4) = (   0.0000000   0.2121481   0.1223945), wk =   0.0160000
        k(    5) = (   0.0000000   0.2121481   0.3673289), wk =   0.0160000
        k(    6) = (   0.0000000   0.2121481   0.6122632), wk =   0.0160000
        k(    7) = (   0.0000000   0.2121481  -0.3674741), wk =   0.0160000
        k(    8) = (   0.0000000   0.2121481  -0.1225398), wk =   0.0160000
        k(    9) = (   0.0000000   0.4242963   0.2447891), wk =   0.0160000
        k(   10) = (   0.0000000   0.4242963   0.4897234), wk =   0.0160000
        k(   11) = (   0.0000000   0.4242963   0.7346577), wk =   0.0160000
        k(   12) = (   0.0000000   0.4242963  -0.2450796), wk =   0.0160000
        k(   13) = (   0.0000000   0.4242963  -0.0001453), wk =   0.0160000
        k(   14) = (   0.2000000   0.0707024   0.1224063), wk =   0.0160000
        k(   15) = (   0.2000000   0.0707024   0.3673406), wk =   0.0160000
        k(   16) = (   0.2000000   0.0707024   0.6122749), wk =   0.0160000
        k(   17) = (   0.2000000   0.0707024  -0.3674624), wk =   0.0160000
        k(   18) = (   0.2000000   0.0707024  -0.1225281), wk =   0.0160000
        k(   19) = (   0.2000000   0.2828506   0.2448008), wk =   0.0160000
        k(   20) = (   0.2000000   0.2828506   0.4897351), wk =   0.0160000
        k(   21) = (   0.2000000   0.2828506   0.7346694), wk =   0.0160000
        k(   22) = (   0.2000000   0.2828506  -0.2450679), wk =   0.0160000
        k(   23) = (   0.2000000   0.2828506  -0.0001335), wk =   0.0160000
        k(   24) = (   0.2000000   0.4949987   0.3671953), wk =   0.0160000
        k(   25) = (   0.2000000   0.4949987   0.6121296), wk =   0.0160000
        k(   26) = (   0.2000000   0.4949987   0.8570640), wk =   0.0160000
        k(   27) = (   0.2000000   0.4949987  -0.1226733), wk =   0.0160000
        k(   28) = (   0.2000000   0.4949987   0.1222610), wk =   0.0160000
        k(   29) = (   0.2000000  -0.3535938  -0.1223828), wk =   0.0160000
        k(   30) = (   0.2000000  -0.3535938   0.1225515), wk =   0.0160000
        k(   31) = (   0.2000000  -0.3535938   0.3674859), wk =   0.0160000
        k(   32) = (   0.2000000  -0.3535938  -0.6122514), wk =   0.0160000
        k(   33) = (   0.2000000  -0.3535938  -0.3673171), wk =   0.0160000
        k(   34) = (   0.2000000  -0.1414457   0.0000117), wk =   0.0160000
        k(   35) = (   0.2000000  -0.1414457   0.2449461), wk =   0.0160000
        k(   36) = (   0.2000000  -0.1414457   0.4898804), wk =   0.0160000
        k(   37) = (   0.2000000  -0.1414457  -0.4898569), wk =   0.0160000
        k(   38) = (   0.2000000  -0.1414457  -0.2449226), wk =   0.0160000
        k(   39) = (   0.4000000   0.1414049   0.2448125), wk =   0.0160000
        k(   40) = (   0.4000000   0.1414049   0.4897469), wk =   0.0160000
        k(   41) = (   0.4000000   0.1414049   0.7346812), wk =   0.0160000
        k(   42) = (   0.4000000   0.1414049  -0.2450561), wk =   0.0160000
        k(   43) = (   0.4000000   0.1414049  -0.0001218), wk =   0.0160000
        k(   44) = (   0.4000000   0.3535530   0.3672070), wk =   0.0160000
        k(   45) = (   0.4000000   0.3535530   0.6121414), wk =   0.0160000
        k(   46) = (   0.4000000   0.3535530   0.8570757), wk =   0.0160000
        k(   47) = (   0.4000000   0.3535530  -0.1226616), wk =   0.0160000
        k(   48) = (   0.4000000   0.3535530   0.1222727), wk =   0.0160000
        k(   49) = (   0.4000000   0.5657011   0.4896016), wk =   0.0160000
        k(   50) = (   0.4000000   0.5657011   0.7345359), wk =   0.0160000
        k(   51) = (   0.4000000   0.5657011   0.9794702), wk =   0.0160000
        k(   52) = (   0.4000000   0.5657011  -0.0002671), wk =   0.0160000
        k(   53) = (   0.4000000   0.5657011   0.2446672), wk =   0.0160000
        k(   54) = (   0.4000000  -0.2828914   0.0000235), wk =   0.0160000
        k(   55) = (   0.4000000  -0.2828914   0.2449578), wk =   0.0160000
        k(   56) = (   0.4000000  -0.2828914   0.4898921), wk =   0.0160000
        k(   57) = (   0.4000000  -0.2828914  -0.4898452), wk =   0.0160000
        k(   58) = (   0.4000000  -0.2828914  -0.2449109), wk =   0.0160000
        k(   59) = (   0.4000000  -0.0707433   0.1224180), wk =   0.0160000
        k(   60) = (   0.4000000  -0.0707433   0.3673523), wk =   0.0160000
        k(   61) = (   0.4000000  -0.0707433   0.6122867), wk =   0.0160000
        k(   62) = (   0.4000000  -0.0707433  -0.3674507), wk =   0.0160000
        k(   63) = (   0.4000000  -0.0707433  -0.1225163), wk =   0.0160000

     Check: negative core charge=   -0.000010
     Generating pointlists ...
     new r_m :   0.4124 (alat units)  1.9170 (a.u.) for type    1

     Initial potential from superposition of free atoms

     starting charge   15.99956, renormalised to   16.00000
     Starting wfcs are   13 randomized atomic wfcs
     Checking if some PAW data can be deallocated...

     Self-consistent Calculation

     iteration #  1     ecut=    90.00 Ry     beta= 0.20
     Davidson diagonalization with overlap
     ethr =  1.00E-02,  avg # of iterations =  3.3

     Threshold (ethr) on eigenvalues was too large:
     Diagonalizing with lowered threshold

     Davidson diagonalization with overlap
     ethr =  1.55E-04,  avg # of iterations =  4.1

     total energy              =    -329.24905097 Ry
     estimated scf accuracy    <       0.02423835 Ry

     total magnetization       =     2.55 Bohr mag/cell
     absolute magnetization    =     2.56 Bohr mag/cell

[...]

     negative rho (up, down):  0.000E+00 4.047E-05

[...]

     Magnetic moment per site:
     atom:    1    charge:   14.3864    magn:    2.0602    constr:    0.0000

     End of self-consistent calculation

     Number of k-points >= 100: set verbosity='high' to print the bands.

     the Fermi energy is    18.0147 ev

!    total energy              =    -329.26884190 Ry

     total all-electron energy =     -2545.565377 Ry
     estimated scf accuracy    <          4.5E-10 Ry
     smearing contrib. (-TS)   =      -0.00079563 Ry
     internal energy E=F+TS    =    -329.26804627 Ry

     The total energy is F=E-TS. E is the sum of the following terms:
     one-electron contribution =    -110.24275596 Ry
     hartree contribution      =      65.51079146 Ry
     xc contribution           =     -34.79187224 Ry
     ewald contribution        =    -173.59002911 Ry
     one-center paw contrib.   =     -76.15418043 Ry

[...]

     convergence has been achieved in  20 iterations

[...]

     Forces acting on atoms (cartesian axes, Ry/au):

     atom    1 type  1   force =     0.00000000    0.00000000    0.00000000

     Total force =     0.000000     Total SCF correction =     0.000006

     Computing stress (Cartesian axis) and pressure

     negative rho (up, down):  0.000E+00 2.097E-05
          total   stress  (Ry/bohr**3)                   (kbar)     P=      -38.90
  -0.00026458  -0.00000061  -0.00000156          -38.92       -0.09       -0.23
  -0.00000061  -0.00026332  -0.00000281           -0.09      -38.74       -0.41
  -0.00000156  -0.00000281  -0.00026548           -0.23       -0.41      -39.05

     BFGS Geometry Optimization
     Energy error            =      0.0E+00
     Gradient error          =      0.0E+00
     Cell gradient error     =      2.7E-04

     number of scf cycles    =   1
     number of bfgs steps    =   0

     enthalpy new            =    -329.2688419010 Ry

     new trust radius        =       0.0116708995 bohr
     new conv_thr            =       0.0000000100 Ry

     new unit-cell volume =     75.77094 a.u.^3 (    11.22810 Ang^3 )
     density =      8.25900 g/cm^3

CELL_PARAMETERS (angstrom)
   2.443300988  -0.000037300  -0.000095984
  -0.814312109   2.303477293  -0.000131182
  -0.814206794  -1.151178203   1.995134762

ATOMIC_POSITIONS (angstrom)
Fe            0.0000000000        0.0000000000        0.0000000000

     Writing output data file ./pwscf.save/
     NEW-OLD atomic charge density approx. for the potential

     Check: negative core charge=   -0.000010

     negative rho (up, down):  0.000E+00 2.112E-05
     extrapolated charge   15.67841, renormalised to   16.00000
     Generating pointlists ...

[...]

     Energy error            =      2.0E-04
     Gradient error          =      0.0E+00
     Cell gradient error     =      8.0E-06

[...]

     enthalpy old            =    -329.2688419010 Ry
     enthalpy new            =    -329.2690429771 Ry

     CASE: enthalpy_new < enthalpy_old

[...]

     CASE: enthalpy_new < enthalpy_old

     new trust radius        =       0.0002207925 bohr
     new conv_thr            =            1.0E-10 Ry

[...]

     number of scf cycles    =   4
     number of bfgs steps    =   3

     enthalpy old            =    -329.2690432469 Ry
     enthalpy new            =    -329.2690431671 Ry

     CASE: enthalpy_new > enthalpy_old

     new trust radius        =       0.0000520492 bohr

     trust_radius < trust_radius_min

     resetting bfgs history

     new conv_thr            =            1.0E-10 Ry

     new unit-cell volume =     75.82551 a.u.^3 (    11.23618 Ang^3 )
     density =      8.25305 g/cm^3

[...]

ATOMIC_POSITIONS (angstrom)
Fe            0.0000000000        0.0000000000        0.0000000000

     Writing output data file ./pwscf.save/
     NEW-OLD atomic charge density approx. for the potential

     Check: negative core charge=   -0.000010

     negative rho (up, down):  0.000E+00 1.930E-05
     extrapolated charge   15.99821, renormalised to   16.00000
     Generating pointlists ...

[...]

     Threshold (ethr) on eigenvalues was too large:
     Diagonalizing with lowered threshold

     Davidson diagonalization with overlap
     ethr =  4.48E-08,  avg # of iterations =  1.0

[...]

     Energy error            =      3.8E-08
     Gradient error          =      0.0E+00
     Cell gradient error     =      6.6E-07

     bfgs converged in   5 scf cycles and   3 bfgs steps
     (criteria: energy <  1.0E-05 Ry, force <  1.0E-04Ry/Bohr, cell <  1.0E-01kbar)

     End of BFGS Geometry Optimization

     Final enthalpy =    -329.2690432088 Ry

     File ./pwscf.bfgs deleted, as requested
Begin final coordinates
     new unit-cell volume =     75.82551 a.u.^3 (    11.23618 Ang^3 )
     density =      8.25305 g/cm^3

CELL_PARAMETERS (angstrom)
   2.443881580  -0.000071026  -0.000186819
  -0.814537396   2.304108353  -0.000259998
  -0.814458539  -1.151614485   1.995670153

ATOMIC_POSITIONS (angstrom)
Fe            0.0000000000        0.0000000000        0.0000000000
End final coordinates

     Writing output data file ./pwscf.save/

     Final scf calculation at the relaxed structure.
     The G-vectors are recalculated for the final unit cell
     Results may differ from those at the preceding step.

     bravais-lattice index     =            0
     lattice parameter (alat)  =       4.6479  a.u.
     unit-cell volume          =      75.8255 (a.u.)^3
     number of atoms/cell      =            1
     number of atomic types    =            1
     number of electrons       =        16.00
     number of Kohn-Sham states=           12
     kinetic-energy cutoff     =      90.0000  Ry
     charge density cutoff     =    1080.0000  Ry
     scf convergence threshold =      1.0E-10
     mixing beta               =       0.2000
     number of iterations used =            8  plain     mixing
     press convergence thresh. =      1.0E-01
     Exchange-correlation= SLA  PW   PBX  PBC
                           (   1   4   3   4   0   0   0)

     celldm(1)=   4.647914  celldm(2)=   0.000000  celldm(3)=   0.000000
     celldm(4)=   0.000000  celldm(5)=   0.000000  celldm(6)=   0.000000

     crystal axes: (cart. coord. in units of alat)
               a(1) = (   0.993621  -0.000029  -0.000076 )
               a(2) = (  -0.331171   0.936793  -0.000106 )
               a(3) = (  -0.331139  -0.468218   0.811390 )

     reciprocal axes: (cart. coord. in units 2 pi/alat)
               b(1) = (  1.006477  0.355874  0.616116 )
               b(2) = (  0.000078  1.067569  0.616079 )
               b(3) = (  0.000094  0.000172  1.232591 )

     PseudoPot. # 1 for Fe read from file:
     /opt/QEpot/SSSP_precision_pseudos/Fe.pbe-spn-kjpaw_psl.0.2.1.UPF
     MD5 check sum: e86618425769142926afa95317d90200
     Pseudo is Projector augmented-wave + core cor, Zval = 16.0
     Generated using "atomic" code by A. Dal Corso  v.5.0.99 svn rev. 10869
     Shape of augmentation charge: PSQ
     Using radial grid of 1191 points,  6 beta functions with:
                l(1) =   0
                l(2) =   0
                l(3) =   1
                l(4) =   1
                l(5) =   2
                l(6) =   2
     Q(r) pseudized with 0 coefficients

     atomic species   valence    mass     pseudopotential
        Fe            16.00    55.84500     Fe( 1.00)

     Starting magnetic structure
     atomic species   magnetization
        Fe           0.141

     No symmetry found

   Cartesian axes

     site n.     atom                  positions (alat units)
         1           Fe  tau(   1) = (   0.0000000   0.0000000   0.0000000  )

     number of k points=    63  Gaussian smearing, width (Ry)=  0.0100
                       cart. coord. in units 2pi/alat
        k(    1) = (   0.0000000   0.0000000   0.0000000), wk =   0.0080000
        k(    2) = (   0.0000188   0.0000345   0.2465182), wk =   0.0160000
        k(    3) = (   0.0000377   0.0000690   0.4930364), wk =   0.0160000
        k(    4) = (   0.0000156   0.2135137   0.1232159), wk =   0.0160000
        k(    5) = (   0.0000345   0.2135482   0.3697341), wk =   0.0160000
        k(    6) = (   0.0000533   0.2135827   0.6162523), wk =   0.0160000
        k(    7) = (  -0.0000221   0.2134448  -0.3698206), wk =   0.0160000
        k(    8) = (  -0.0000032   0.2134793  -0.1233024), wk =   0.0160000
        k(    9) = (   0.0000312   0.4270275   0.2464317), wk =   0.0160000
        k(   10) = (   0.0000501   0.4270619   0.4929500), wk =   0.0160000
        k(   11) = (   0.0000689   0.4270964   0.7394682), wk =   0.0160000
        k(   12) = (  -0.0000064   0.4269585  -0.2466047), wk =   0.0160000
        k(   13) = (   0.0000124   0.4269930  -0.0000865), wk =   0.0160000
        k(   14) = (   0.2012954   0.0711749   0.1232232), wk =   0.0160000
        k(   15) = (   0.2013142   0.0712094   0.3697414), wk =   0.0160000
        k(   16) = (   0.2013331   0.0712438   0.6162596), wk =   0.0160000
        k(   17) = (   0.2012577   0.0711059  -0.3698133), wk =   0.0160000
        k(   18) = (   0.2012765   0.0711404  -0.1232951), wk =   0.0160000
        k(   19) = (   0.2013110   0.2846886   0.2464390), wk =   0.0160000
        k(   20) = (   0.2013299   0.2847231   0.4929572), wk =   0.0160000
        k(   21) = (   0.2013487   0.2847576   0.7394755), wk =   0.0160000
        k(   22) = (   0.2012733   0.2846197  -0.2465974), wk =   0.0160000
        k(   23) = (   0.2012922   0.2846541  -0.0000792), wk =   0.0160000
        k(   24) = (   0.2013266   0.4982023   0.3696549), wk =   0.0160000
        k(   25) = (   0.2013455   0.4982368   0.6161731), wk =   0.0160000
        k(   26) = (   0.2013643   0.4982713   0.8626913), wk =   0.0160000
        k(   27) = (   0.2012889   0.4981334  -0.1233816), wk =   0.0160000
        k(   28) = (   0.2013078   0.4981679   0.1231367), wk =   0.0160000
        k(   29) = (   0.2012641  -0.3558526  -0.1232086), wk =   0.0160000
        k(   30) = (   0.2012830  -0.3558181   0.1233096), wk =   0.0160000
        k(   31) = (   0.2013018  -0.3557836   0.3698279), wk =   0.0160000
        k(   32) = (   0.2012264  -0.3559215  -0.6162450), wk =   0.0160000
        k(   33) = (   0.2012453  -0.3558871  -0.3697268), wk =   0.0160000
        k(   34) = (   0.2012798  -0.1423388   0.0000073), wk =   0.0160000
        k(   35) = (   0.2012986  -0.1423044   0.2465255), wk =   0.0160000
        k(   36) = (   0.2013175  -0.1422699   0.4930437), wk =   0.0160000
        k(   37) = (   0.2012421  -0.1424078  -0.4930292), wk =   0.0160000
        k(   38) = (   0.2012609  -0.1423733  -0.2465109), wk =   0.0160000
        k(   39) = (   0.4025908   0.1423498   0.2464463), wk =   0.0160000
        k(   40) = (   0.4026096   0.1423843   0.4929645), wk =   0.0160000
        k(   41) = (   0.4026285   0.1424187   0.7394828), wk =   0.0160000
        k(   42) = (   0.4025531   0.1422808  -0.2465901), wk =   0.0160000
        k(   43) = (   0.4025719   0.1423153  -0.0000719), wk =   0.0160000
        k(   44) = (   0.4026064   0.3558635   0.3696622), wk =   0.0160000
        k(   45) = (   0.4026252   0.3558980   0.6161804), wk =   0.0160000
        k(   46) = (   0.4026441   0.3559325   0.8626986), wk =   0.0160000
        k(   47) = (   0.4025687   0.3557945  -0.1233743), wk =   0.0160000
        k(   48) = (   0.4025875   0.3558290   0.1231440), wk =   0.0160000
        k(   49) = (   0.4026220   0.5693772   0.4928781), wk =   0.0160000
        k(   50) = (   0.4026409   0.5694117   0.7393963), wk =   0.0160000
        k(   51) = (   0.4026597   0.5694462   0.9859145), wk =   0.0160000
        k(   52) = (   0.4025843   0.5693083  -0.0001584), wk =   0.0160000
        k(   53) = (   0.4026032   0.5693428   0.2463598), wk =   0.0160000
        k(   54) = (   0.4025595  -0.2846777   0.0000146), wk =   0.0160000
        k(   55) = (   0.4025784  -0.2846432   0.2465328), wk =   0.0160000
        k(   56) = (   0.4025972  -0.2846087   0.4930510), wk =   0.0160000
        k(   57) = (   0.4025218  -0.2847466  -0.4930219), wk =   0.0160000
        k(   58) = (   0.4025407  -0.2847122  -0.2465036), wk =   0.0160000
        k(   59) = (   0.4025751  -0.0711640   0.1232304), wk =   0.0160000
        k(   60) = (   0.4025940  -0.0711295   0.3697487), wk =   0.0160000
        k(   61) = (   0.4026128  -0.0710950   0.6162669), wk =   0.0160000
        k(   62) = (   0.4025375  -0.0712329  -0.3698060), wk =   0.0160000
        k(   63) = (   0.4025563  -0.0711984  -0.1232878), wk =   0.0160000

     Check: negative core charge=   -0.000010
     Generating pointlists ...

     Initial potential from superposition of free atoms

     starting charge   15.99956, renormalised to   16.00000
     Starting wfcs are   13 randomized atomic wfcs
     Checking if some PAW data can be deallocated...

     Self-consistent Calculation

     iteration #  1     ecut=    90.00 Ry     beta= 0.20
     Davidson diagonalization with overlap
     c_bands:  1 eigenvalues not converged
     c_bands:  1 eigenvalues not converged
     c_bands:  2 eigenvalues not converged
     ethr =  1.00E-06,  avg # of iterations = 13.6

[...]

     total energy              =    -329.26901214 Ry
     estimated scf accuracy    <          1.1E-10 Ry

[...]

     iteration # 14     ecut=    90.00 Ry     beta= 0.20
     Davidson diagonalization with overlap
     ethr =  6.99E-13,  avg # of iterations =  3.4

[...]

     Magnetic moment per site:
     atom:    1    charge:   14.4093    magn:    2.0376    constr:    0.0000

     End of self-consistent calculation

     Number of k-points >= 100: set verbosity='high' to print the bands.

     the Fermi energy is    18.4633 ev

!    total energy              =    -329.26901356 Ry

     total all-electron energy =     -2545.565549 Ry
     estimated scf accuracy    <          5.1E-11 Ry
     smearing contrib. (-TS)   =      -0.00068072 Ry
     internal energy E=F+TS    =    -329.26833285 Ry

     The total energy is F=E-TS. E is the sum of the following terms:
     one-electron contribution =    -108.47270626 Ry
     hartree contribution      =      64.86616610 Ry
     xc contribution           =     -34.80356042 Ry
     ewald contribution        =    -174.70342977 Ry
     one-center paw contrib.   =     -76.15480250 Ry

     total magnetization       =     1.99 Bohr mag/cell
     absolute magnetization    =     2.10 Bohr mag/cell

     convergence has been achieved in  14 iterations

     negative rho (up, down):  0.000E+00 1.939E-05

     Forces acting on atoms (cartesian axes, Ry/au):

     atom    1 type  1   force =     0.00000000    0.00000000    0.00000000

     Total force =     0.000000     Total SCF correction =     0.000001

     Computing stress (Cartesian axis) and pressure

     negative rho (up, down):  0.000E+00 1.939E-05
          total   stress  (Ry/bohr**3)                   (kbar)     P=       -0.92
  -0.00000623  -0.00000012  -0.00000031           -0.92       -0.02       -0.05
  -0.00000012  -0.00000601  -0.00000059           -0.02       -0.88       -0.09
  -0.00000031  -0.00000059  -0.00000652           -0.05       -0.09       -0.96

     General routines

     Parallel routines

   This run was terminated on:  22:54:52  16May2022

   JOB DONE.
Note: The following floating-point exceptions are signalling: IEEE_UNDERFLOW_FLAG IEEE_DENORMAL
Note: The following floating-point exceptions are signalling: IEEE_DENORMAL
Note: The following floating-point exceptions are signalling: IEEE_DENORMAL