     Program PWSCF v.6.7MaX starts on 10Feb2022 at 20:48:49

     R & G space division:  proc/nbgrp/npool/nimage =      24
     Reading input from /home/kevin/QE_CoCrFeMnNi/CoCrFeMnNi/Opt/binary/Opt-B1-CrFe/Mix/MD/600K_0.0001Gpa-B1-CrFe/600K_0.0001Gpa-B1-CrFe.in

     Current dimensions of program PWSCF are:
     Max number of different atomic species (ntypx) = 10
     Max number of k-points (npk) =  40000
     Max angular momentum in pseudopotentials (lmaxx) =  3

     File ./pwscf.update deleted, as requested

     File ./pwscf.md deleted, as requested
     file Fe.pbe-spn-kjpaw_psl.0.2.1.UPF: wavefunction(s)  3D renormalized

     Subspace diagonalization in iterative solution of the eigenvalue problem:
     a serial algorithm will be used

     Found symmetry operation: I + (  0.0000  0.5000 -0.5000)
     This is a supercell, fractional translations are disabled

     bravais-lattice index     =            0
     lattice parameter (alat)  =       8.6823  a.u.
     unit-cell volume          =     654.5026 (a.u.)^3
     number of atoms/cell      =            8
     number of atomic types    =            2
     number of electrons       =       120.00
     number of Kohn-Sham states=           72
     kinetic-energy cutoff     =      90.0000  Ry
     charge density cutoff     =    1080.0000  Ry
     scf convergence threshold =      1.0E-08
     mixing beta               =       0.2000
     number of iterations used =            4  plain     mixing
     energy convergence thresh.=      0.0E+00
     force convergence thresh. =      0.0E+00
     press convergence thresh. =      0.0E+00
     Exchange-correlation=  SLA  PW   PBX  PBC
                           (   1   4   3   4   0   0   0)
     nstep                     =          102

     celldm(1)=   8.682347  celldm(2)=   0.000000  celldm(3)=   0.000000
     celldm(4)=   0.000000  celldm(5)=   0.000000  celldm(6)=   0.000000

     crystal axes: (cart. coord. in units of alat)
               a(1) = (   1.000000   0.000000   0.000000 )
               a(2) = (   0.000000   1.000000   0.000000 )
               a(3) = (   0.000000   0.000000   1.000000 )

     reciprocal axes: (cart. coord. in units 2 pi/alat)
               b(1) = (  1.000000  0.000000  0.000000 )
               b(2) = (  0.000000  1.000000  0.000000 )
               b(3) = (  0.000000  0.000000  1.000000 )

     PseudoPot. # 1 for Fe read from file:
     /opt/QEpot/SSSP_efficiency_pseudos/Fe.pbe-spn-kjpaw_psl.0.2.1.UPF
     MD5 check sum: e86618425769142926afa95317d90200
     Pseudo is Projector augmented-wave + core cor, Zval = 16.0
     Generated using "atomic" code by A. Dal Corso  v.5.0.99 svn rev. 10869
     Shape of augmentation charge: PSQ
     Using radial grid of 1191 points,  6 beta functions with:
                l(1) =   0
                l(2) =   0
                l(3) =   1
                l(4) =   1
                l(5) =   2
                l(6) =   2
     Q(r) pseudized with 0 coefficients

     PseudoPot. # 2 for Cr read from file:
     /opt/QEpot/SSSP_efficiency_pseudos/cr_pbe_v1.5.uspp.F.UPF
     MD5 check sum: 0d52af634a40206e4dee301ad30da4bf
     Pseudo is Ultrasoft + core correction, Zval = 14.0
     Generated by new atomic code, or converted to UPF format
     Using radial grid of  857 points,  6 beta functions with:
                l(1) =   0
                l(2) =   0
                l(3) =   1
                l(4) =   1
                l(5) =   2
                l(6) =   2
     Q(r) pseudized with  8 coefficients,  rinner =    0.950   0.950   0.950
                                                       0.950   0.950

     atomic species   valence    mass     pseudopotential
        Fe            16.00    55.84500     Fe( 1.00)
        Cr            14.00    51.99610     Cr( 1.00)

      cell mass =  32.77976 AMU

     Starting magnetic structure
     atomic species   magnetization
        Fe          -0.000
        Cr           0.000

     No symmetry found

   Cartesian axes

     site n.     atom                  positions (alat units)
         1           Fe  tau(   1) = (   0.0000000   0.5000000   0.0000000  )
         2           Cr  tau(   2) = (   0.5000000   0.0000000   0.5000000  )
         3           Fe  tau(   3) = (   0.0000000   0.0000000   0.5000000  )
         4           Cr  tau(   4) = (   0.5000000   0.5000000   0.0000000  )
         5           Fe  tau(   5) = (   0.5000000   0.0000000   0.0000000  )
         6           Cr  tau(   6) = (   0.0000000   0.5000000   0.5000000  )
         7           Fe  tau(   7) = (   0.5000000   0.5000000   0.5000000  )
         8           Cr  tau(   8) = (   0.0000000   0.0000000   0.0000000  )

     number of k points=    63  Gaussian smearing, width (Ry)=  0.0100
                       cart. coord. in units 2pi/alat
        k(    1) = (   0.0000000   0.0000000   0.0000000), wk =   0.0080000
        k(    2) = (   0.0000000   0.0000000   0.2000000), wk =   0.0160000
        k(    3) = (   0.0000000   0.0000000   0.4000000), wk =   0.0160000
        k(    4) = (   0.0000000   0.2000000   0.0000000), wk =   0.0160000
        k(    5) = (   0.0000000   0.2000000   0.2000000), wk =   0.0160000
        k(    6) = (   0.0000000   0.2000000   0.4000000), wk =   0.0160000
        k(    7) = (   0.0000000   0.2000000  -0.4000000), wk =   0.0160000
        k(    8) = (   0.0000000   0.2000000  -0.2000000), wk =   0.0160000
        k(    9) = (   0.0000000   0.4000000   0.0000000), wk =   0.0160000
        k(   10) = (   0.0000000   0.4000000   0.2000000), wk =   0.0160000
        k(   11) = (   0.0000000   0.4000000   0.4000000), wk =   0.0160000
        k(   12) = (   0.0000000   0.4000000  -0.4000000), wk =   0.0160000
        k(   13) = (   0.0000000   0.4000000  -0.2000000), wk =   0.0160000
        k(   14) = (   0.2000000   0.0000000   0.0000000), wk =   0.0160000
        k(   15) = (   0.2000000   0.0000000   0.2000000), wk =   0.0160000
        k(   16) = (   0.2000000   0.0000000   0.4000000), wk =   0.0160000
        k(   17) = (   0.2000000   0.0000000  -0.4000000), wk =   0.0160000
        k(   18) = (   0.2000000   0.0000000  -0.2000000), wk =   0.0160000
        k(   19) = (   0.2000000   0.2000000   0.0000000), wk =   0.0160000
        k(   20) = (   0.2000000   0.2000000   0.2000000), wk =   0.0160000
        k(   21) = (   0.2000000   0.2000000   0.4000000), wk =   0.0160000
        k(   22) = (   0.2000000   0.2000000  -0.4000000), wk =   0.0160000
        k(   23) = (   0.2000000   0.2000000  -0.2000000), wk =   0.0160000
        k(   24) = (   0.2000000   0.4000000   0.0000000), wk =   0.0160000
        k(   25) = (   0.2000000   0.4000000   0.2000000), wk =   0.0160000
        k(   26) = (   0.2000000   0.4000000   0.4000000), wk =   0.0160000
        k(   27) = (   0.2000000   0.4000000  -0.4000000), wk =   0.0160000
        k(   28) = (   0.2000000   0.4000000  -0.2000000), wk =   0.0160000
        k(   29) = (   0.2000000  -0.4000000   0.0000000), wk =   0.0160000
        k(   30) = (   0.2000000  -0.4000000   0.2000000), wk =   0.0160000
        k(   31) = (   0.2000000  -0.4000000   0.4000000), wk =   0.0160000
        k(   32) = (   0.2000000  -0.4000000  -0.4000000), wk =   0.0160000
        k(   33) = (   0.2000000  -0.4000000  -0.2000000), wk =   0.0160000
        k(   34) = (   0.2000000  -0.2000000   0.0000000), wk =   0.0160000
        k(   35) = (   0.2000000  -0.2000000   0.2000000), wk =   0.0160000
        k(   36) = (   0.2000000  -0.2000000   0.4000000), wk =   0.0160000
        k(   37) = (   0.2000000  -0.2000000  -0.4000000), wk =   0.0160000
        k(   38) = (   0.2000000  -0.2000000  -0.2000000), wk =   0.0160000
        k(   39) = (   0.4000000   0.0000000   0.0000000), wk =   0.0160000
        k(   40) = (   0.4000000   0.0000000   0.2000000), wk =   0.0160000
        k(   41) = (   0.4000000   0.0000000   0.4000000), wk =   0.0160000
        k(   42) = (   0.4000000   0.0000000  -0.4000000), wk =   0.0160000
        k(   43) = (   0.4000000   0.0000000  -0.2000000), wk =   0.0160000
        k(   44) = (   0.4000000   0.2000000   0.0000000), wk =   0.0160000
        k(   45) = (   0.4000000   0.2000000   0.2000000), wk =   0.0160000
        k(   46) = (   0.4000000   0.2000000   0.4000000), wk =   0.0160000
        k(   47) = (   0.4000000   0.2000000  -0.4000000), wk =   0.0160000
        k(   48) = (   0.4000000   0.2000000  -0.2000000), wk =   0.0160000
        k(   49) = (   0.4000000   0.4000000   0.0000000), wk =   0.0160000
        k(   50) = (   0.4000000   0.4000000   0.2000000), wk =   0.0160000
        k(   51) = (   0.4000000   0.4000000   0.4000000), wk =   0.0160000
        k(   52) = (   0.4000000   0.4000000  -0.4000000), wk =   0.0160000
        k(   53) = (   0.4000000   0.4000000  -0.2000000), wk =   0.0160000
        k(   54) = (   0.4000000  -0.4000000   0.0000000), wk =   0.0160000
        k(   55) = (   0.4000000  -0.4000000   0.2000000), wk =   0.0160000
        k(   56) = (   0.4000000  -0.4000000   0.4000000), wk =   0.0160000
        k(   57) = (   0.4000000  -0.4000000  -0.4000000), wk =   0.0160000
        k(   58) = (   0.4000000  -0.4000000  -0.2000000), wk =   0.0160000
        k(   59) = (   0.4000000  -0.2000000   0.0000000), wk =   0.0160000
        k(   60) = (   0.4000000  -0.2000000   0.2000000), wk =   0.0160000
        k(   61) = (   0.4000000  -0.2000000   0.4000000), wk =   0.0160000
        k(   62) = (   0.4000000  -0.2000000  -0.4000000), wk =   0.0160000
        k(   63) = (   0.4000000  -0.2000000  -0.2000000), wk =   0.0160000

     Check: negative core charge=   -0.000008
     Generating pointlists ...
     new r_m :   0.2063 (alat units)  1.7907 (a.u.) for type    1
     new r_m :   0.2063 (alat units)  1.7907 (a.u.) for type    2

     Initial potential from superposition of free atoms

     starting charge  115.99819, renormalised to  120.00000

     negative rho (up, down):  1.574E-03 1.574E-03
     Starting wfcs are   92 randomized atomic wfcs
     Checking if some PAW data can be deallocated...

     Self-consistent Calculation

     iteration #  1     ecut=    90.00 Ry     beta= 0.20
     CG style diagonalization
     ethr =  1.00E-02,  avg # of iterations =  2.6

     negative rho (up, down):  1.226E-03 1.226E-03

     total energy              =   -2010.23840452 Ry
     estimated scf accuracy    <      31.49220612 Ry

     total magnetization       =     0.00 Bohr mag/cell
     absolute magnetization    =     0.01 Bohr mag/cell

[...]

     iteration # 14     ecut=    90.00 Ry     beta= 0.20
     CG style diagonalization
     c_bands:  1 eigenvalues not converged
     c_bands:  1 eigenvalues not converged
     c_bands:  1 eigenvalues not converged
     c_bands:  1 eigenvalues not converged
     c_bands:  1 eigenvalues not converged
     c_bands:  1 eigenvalues not converged
     c_bands:  1 eigenvalues not converged
     c_bands:  1 eigenvalues not converged
     c_bands:  1 eigenvalues not converged
     c_bands:  1 eigenvalues not converged
     c_bands:  1 eigenvalues not converged
     c_bands:  1 eigenvalues not converged
     c_bands:  1 eigenvalues not converged
     c_bands:  1 eigenvalues not converged
     c_bands:  1 eigenvalues not converged
     c_bands:  1 eigenvalues not converged
     ethr =  1.01E-05,  avg # of iterations =  4.8

[...]

     Magnetic moment per site:
     atom:    1    charge:   14.1929    magn:    0.0040    constr:    0.0000
     atom:    2    charge:   11.8096    magn:   -0.0036    constr:    0.0000
     atom:    3    charge:   14.1929    magn:    0.0032    constr:    0.0000
     atom:    4    charge:   11.8096    magn:   -0.0032    constr:    0.0000
     atom:    5    charge:   14.1929    magn:    0.0036    constr:    0.0000
     atom:    6    charge:   11.8096    magn:   -0.0040    constr:    0.0000
     atom:    7    charge:   14.1929    magn:    0.0024    constr:    0.0000
     atom:    8    charge:   11.8096    magn:   -0.0045    constr:    0.0000

     End of self-consistent calculation

     Number of k-points >= 100: set verbosity='high' to print the bands.

     the Fermi energy is    17.9114 ev

!    total energy              =   -2018.52503728 Ry
     estimated scf accuracy    <          7.0E-09 Ry
     smearing contrib. (-TS)   =      -0.00525721 Ry
     internal energy E=F+TS    =   -2018.51978006 Ry

[...]

     convergence has been achieved in  62 iterations

[...]

     Forces acting on atoms (cartesian axes, Ry/au):

     atom    1 type  1   force =     0.00000029   -0.00000002    0.00000001
     atom    2 type  2   force =    -0.00000034   -0.00000037   -0.00000043
     atom    3 type  1   force =     0.00000010   -0.00000019   -0.00000006
     atom    4 type  2   force =     0.00000004    0.00000001    0.00000026
     atom    5 type  1   force =    -0.00000012   -0.00000019   -0.00000045
     atom    6 type  2   force =     0.00000067    0.00000050    0.00000106
     atom    7 type  1   force =    -0.00000050    0.00000032   -0.00000004
     atom    8 type  2   force =    -0.00000014   -0.00000005   -0.00000036

     Total force =     0.000002     Total SCF correction =     0.000001
     SCF correction compared to forces is large: reduce conv_thr to get better values

     Computing stress (Cartesian axis) and pressure

     negative rho (up, down):  1.666E-03 1.653E-03
          total   stress  (Ry/bohr**3)                   (kbar)     P=        0.03
   0.00000020   0.00000000   0.00000000            0.03        0.00        0.00
   0.00000000   0.00000020   0.00000000            0.00        0.03        0.00
   0.00000000   0.00000000   0.00000020            0.00        0.00        0.03

     Entering Dynamics;  it =     1   time =  0.00000 pico-seconds

     File pwscf.e deleted, as requested

     File pwscf.eal deleted, as requested

     File pwscf.ave deleted, as requested

     File pwscf.p deleted, as requested

     File pwscf.avec deleted, as requested

     File pwscf.tv deleted, as requested
  new lattice vectors (alat unit) :
   1.000003759  -0.000001514  -0.000000117
  -0.000001514   1.000001351   0.000001380
  -0.000000117   0.000001380   1.000004385
  new unit-cell volume =    654.5088 (a.u.)^3
  new positions in cryst coord
Fe      -0.001380972   0.500245303  -0.000620123
Cr       0.500064694  -0.000067495   0.499697371
Fe       0.000299965  -0.000003223   0.501130987
Cr       0.500213800   0.499582024  -0.000705945
Fe       0.501077308  -0.000744140  -0.000787564
Cr      -0.000313231   0.500376234   0.501003294
Fe       0.500003699   0.500502060   0.500276699
Cr       0.000034737   0.000109236   0.000005280
  new positions in cart coord (alat unit)
Fe      -0.001381735   0.500245980  -0.000619435
Cr       0.500066516  -0.000067562   0.499699503
Fe       0.000299908  -0.000002532   0.501133184
Cr       0.500214924   0.499581941  -0.000705317
Fe       0.501079193  -0.000744901  -0.000787627
Cr      -0.000314048   0.500377602   0.501006181
Fe       0.500004762   0.500502669   0.500279525
Cr       0.000034737   0.000109237   0.000005280

     Ekin =     0.03990183 Ry    T =    0.0 K  Etot =    -2018.48513100
     new unit-cell volume =    654.50880 a.u.^3 (    96.98820 Ang^3 )
     density =      7.38541 g/cm^3

CELL_PARAMETERS (angstrom)
   4.594517272  -0.000006955  -0.000000537
  -0.000006955   4.594506206   0.000006340
  -0.000000537   0.000006340   4.594520145

ATOMIC_POSITIONS (angstrom)
Fe           -0.0063483805        2.2983801566       -0.0028459952
Cr            2.2975556074       -0.0003104148        2.2958693670
Fe            0.0013779269       -0.0000116339        2.3024564160
Cr            2.2982374688        2.2953292276       -0.0032405792
Fe            2.3022083531       -0.0034224456       -0.0036187505
Cr           -0.0014428953        2.2989848906        2.3018729002
Fe            2.2972718790        2.2995595132        2.2985342758
Cr            0.0001595989        0.0005018874        0.0000242610

     Writing output data file ./pwscf.save/
     NEW-OLD atomic charge density approx. for the potential

     Check: negative core charge=   -0.000008

     negative rho (up, down):  1.657E-03 1.644E-03
     extrapolated charge  120.00110, renormalised to  120.00000
     Generating pointlists ...

[...]

     Total force =     0.005136     Total SCF correction =     0.000014

[...]

  new lattice vectors (alat unit) :
   1.000014088  -0.000005647  -0.000000435
  -0.000005647   1.000005075   0.000005152
  -0.000000435   0.000005152   1.000016430
  new unit-cell volume =    654.5259 (a.u.)^3
  new positions in cryst coord
Fe      -0.002946149   0.500523527  -0.001321768
Cr       0.500137939  -0.000143098   0.499352835
Fe       0.000640190  -0.000006511   0.502412830
Cr       0.500454193   0.499106919  -0.001505522
Fe       0.502298502  -0.001588187  -0.001680401
Cr      -0.000667923   0.500802450   0.502139617
Fe       0.500007458   0.501071177   0.500589345
Cr       0.000075792   0.000233722   0.000013065
  new positions in cart coord (alat unit)
Fe      -0.002949016   0.500526077  -0.001319210
Cr       0.500144768  -0.000143350   0.499360820
Fe       0.000639980  -0.000003927   0.502421084
Cr       0.500458425   0.499106618  -0.001503193
Fe       0.502305588  -0.001591040  -0.001680655
Cr      -0.000670979   0.500807583   0.502150448
Fe       0.500011454   0.501073476   0.500599933
Cr       0.000075791   0.000233723   0.000013066

[...]

     negative rho (up, down):  1.679E-03 1.672E-03
     extrapolated charge  120.00519, renormalised to  120.00000
     Generating pointlists ...
     new r_m :   0.2041 (alat units)  1.7719 (a.u.) for type    1
     new r_m :   0.2041 (alat units)  1.7719 (a.u.) for type    2

[...]

     negative rho (up, down):  1.700E-03 1.712E-03
     extrapolated charge  120.10360, renormalised to  120.00000
     Generating pointlists ...
     new r_m :   0.1909 (alat units)  1.6573 (a.u.) for type    1
     new r_m :   0.1909 (alat units)  1.6573 (a.u.) for type    2

[...]

     Writing output data file ./pwscf.save/
     NEW-OLD atomic charge density approx. for the potential

     Check: negative core charge=   -0.000006

     negative rho (up, down):  1.924E-03 1.940E-03
     extrapolated charge  119.90773, renormalised to  120.00000
     Generating pointlists ...

     Self-consistent Calculation

     iteration #  1     ecut=    90.00 Ry     beta= 0.20
     CG style diagonalization
     c_bands:  1 eigenvalues not converged
     c_bands:  1 eigenvalues not converged
     c_bands:  1 eigenvalues not converged
     c_bands:  1 eigenvalues not converged
     c_bands:  2 eigenvalues not converged
     c_bands:  1 eigenvalues not converged
     c_bands:  1 eigenvalues not converged
     c_bands:  2 eigenvalues not converged
     c_bands:  1 eigenvalues not converged
     c_bands:  1 eigenvalues not converged
     c_bands:  1 eigenvalues not converged
     c_bands:  1 eigenvalues not converged
     c_bands:  1 eigenvalues not converged
     c_bands:  2 eigenvalues not converged
     c_bands:  1 eigenvalues not converged
     c_bands:  1 eigenvalues not converged
     c_bands:  1 eigenvalues not converged
     c_bands:  1 eigenvalues not converged
     c_bands:  1 eigenvalues not converged
     c_bands:  1 eigenvalues not converged
     c_bands:  3 eigenvalues not converged
     c_bands:  1 eigenvalues not converged
     c_bands:  1 eigenvalues not converged
     c_bands:  2 eigenvalues not converged
     c_bands:  1 eigenvalues not converged
     c_bands:  2 eigenvalues not converged
     c_bands:  2 eigenvalues not converged
     c_bands:  1 eigenvalues not converged
     c_bands:  1 eigenvalues not converged
     c_bands:  1 eigenvalues not converged
     c_bands:  1 eigenvalues not converged
     c_bands:  1 eigenvalues not converged
     c_bands:  2 eigenvalues not converged
     c_bands:  1 eigenvalues not converged
     c_bands:  1 eigenvalues not converged
     c_bands:  1 eigenvalues not converged
     c_bands:  2 eigenvalues not converged
     c_bands:  1 eigenvalues not converged
     c_bands:  2 eigenvalues not converged
     c_bands:  1 eigenvalues not converged
     c_bands:  1 eigenvalues not converged
     c_bands:  1 eigenvalues not converged
     c_bands:  1 eigenvalues not converged
     ethr =  1.00E-06,  avg # of iterations =  8.7

[...]

     total energy              =   -2018.72407486 Ry
     estimated scf accuracy    <       0.00000001 Ry

[...]

     iteration # 41     ecut=    90.00 Ry     beta= 0.20
     CG style diagonalization
     ethr =  8.63E-12,  avg # of iterations =  3.0

[...]

     Magnetic moment per site:
     atom:    1    charge:   13.7108    magn:   -0.0032    constr:    0.0000
     atom:    2    charge:   11.3685    magn:    0.0041    constr:    0.0000
     atom:    3    charge:   13.7094    magn:    0.0033    constr:    0.0000
     atom:    4    charge:   11.3620    magn:    0.0072    constr:    0.0000
     atom:    5    charge:   13.6913    magn:   -0.0097    constr:    0.0000
     atom:    6    charge:   11.3746    magn:    0.0043    constr:    0.0000
     atom:    7    charge:   13.7142    magn:   -0.0097    constr:    0.0000
     atom:    8    charge:   11.3764    magn:   -0.0012    constr:    0.0000

     End of self-consistent calculation

     Number of k-points >= 100: set verbosity='high' to print the bands.

     the Fermi energy is    18.8141 ev

!    total energy              =   -2018.72407487 Ry
     estimated scf accuracy    <          5.1E-09 Ry
     smearing contrib. (-TS)   =      -0.00857224 Ry
     internal energy E=F+TS    =   -2018.71550262 Ry

     total magnetization       =    -0.00 Bohr mag/cell
     absolute magnetization    =     0.05 Bohr mag/cell

     convergence has been achieved in  41 iterations

     negative rho (up, down):  1.925E-03 1.944E-03

     Forces acting on atoms (cartesian axes, Ry/au):

     atom    1 type  1   force =    -0.00857355   -0.00880806   -0.00714624
     atom    2 type  2   force =     0.03336915    0.04094399    0.02684552
     atom    3 type  1   force =     0.01956435   -0.02144536    0.04874085
     atom    4 type  2   force =    -0.03439538    0.01404641   -0.02637583
     atom    5 type  1   force =    -0.01772801   -0.00588445   -0.02408007
     atom    6 type  2   force =     0.00807271   -0.01474629   -0.01881692
     atom    7 type  1   force =     0.01560707    0.04127211   -0.01535057
     atom    8 type  2   force =    -0.01591634   -0.04537835    0.01618325

     Total force =     0.123813     Total SCF correction =     0.000074

     Computing stress (Cartesian axis) and pressure

     negative rho (up, down):  1.925E-03 1.944E-03
          total   stress  (Ry/bohr**3)                   (kbar)     P=       27.35
   0.00009839   0.00014494   0.00009181           14.47       21.32       13.51
   0.00014494   0.00028472  -0.00006232           21.32       41.88       -9.17
   0.00009181  -0.00006232   0.00017456           13.51       -9.17       25.68

     Entering Dynamics;  it =   102   time =  0.09772 pico-seconds

  new lattice vectors (alat unit) :
   0.987367189   0.033820198   0.025575523
   0.033820198   0.979962644  -0.010610955
   0.025575523  -0.010610955   0.987356548
  new unit-cell volume =    624.0352 (a.u.)^3
  new positions in cryst coord
Fe      -0.097034523   0.532594714   0.012456483
Cr       0.517855921   0.068815436   0.410853346
Fe       0.024012165  -0.002853690   0.595683784
Cr       0.405186744   0.403045558  -0.028509382
Fe       0.575891052  -0.086485576  -0.082590801
Cr       0.012949349   0.486527198   0.505133471
Fe       0.494636194   0.565131568   0.473343381
Cr       0.066687792   0.032603960   0.113711673
  new positions in cart coord (alat unit)
Fe      -0.077477665   0.518509022   0.004165943
Cr       0.524149086   0.080591000   0.418172981
Fe       0.038847236  -0.008305187   0.588796689
Cr       0.412970034   0.408975598  -0.022062761
Fe       0.563578668  -0.064399517  -0.065900159
Cr       0.042159261   0.471856481   0.493915509
Fe       0.519606415   0.565513895   0.474012680
Cr       0.069856246   0.032999468   0.113633581

     Ekin =     0.05980872 Ry    T =  681.8 K  Etot =    -2018.66426191
     new unit-cell volume =    624.03517 a.u.^3 (    92.47247 Ang^3 )
     density =      7.74606 g/cm^3

CELL_PARAMETERS (angstrom)
   4.536458551   0.155386898   0.117506741
   0.155386898   4.502438370  -0.048752034
   0.117506741  -0.048752034   4.536409662

ATOMIC_POSITIONS (angstrom)
Fe           -0.3559711306        2.3822897027        0.0191404247
Cr            2.4082029766        0.3702753473        1.9212957598
Fe            0.1784836271       -0.0381581820        2.7052263876
Cr            1.8973908226        1.8790383863       -0.1013673534
Fe            2.5893621879       -0.2958835801       -0.3027782809
Cr            0.1937007253        2.1679446003        2.2692948046
Fe            2.3873316722        2.5982535892        2.1778512599
Cr            0.3209545226        0.1516160549        0.5220894859

     Maximum number of iterations reached, stopping

     General routines

     Parallel routines

   This run was terminated on:  22:46: 3  12Feb2022

   JOB DONE.
Note: The following floating-point exceptions are signalling: IEEE_UNDERFLOW_FLAG IEEE_DENORMAL
Note: The following floating-point exceptions are signalling: IEEE_INVALID_FLAG IEEE_UNDERFLOW_FLAG IEEE_DENORMAL
Note: The following floating-point exceptions are signalling: IEEE_UNDERFLOW_FLAG IEEE_DENORMAL
Note: The following floating-point exceptions are signalling: IEEE_UNDERFLOW_FLAG IEEE_DENORMAL
Note: The following floating-point exceptions are signalling: IEEE_UNDERFLOW_FLAG IEEE_DENORMAL
Note: The following floating-point exceptions are signalling: IEEE_UNDERFLOW_FLAG IEEE_DENORMAL
Note: The following floating-point exceptions are signalling: IEEE_UNDERFLOW_FLAG IEEE_DENORMAL
Note: The following floating-point exceptions are signalling: IEEE_UNDERFLOW_FLAG IEEE_DENORMAL
Note: The following floating-point exceptions are signalling: IEEE_UNDERFLOW_FLAG IEEE_DENORMAL
Note: The following floating-point exceptions are signalling: IEEE_UNDERFLOW_FLAG IEEE_DENORMAL
Note: The following floating-point exceptions are signalling: IEEE_UNDERFLOW_FLAG IEEE_DENORMAL
Note: The following floating-point exceptions are signalling: IEEE_UNDERFLOW_FLAG IEEE_DENORMAL
Note: The following floating-point exceptions are signalling: IEEE_UNDERFLOW_FLAG IEEE_DENORMAL
Note: The following floating-point exceptions are signalling: IEEE_UNDERFLOW_FLAG IEEE_DENORMAL
Note: The following floating-point exceptions are signalling: IEEE_UNDERFLOW_FLAG IEEE_DENORMAL
Note: The following floating-point exceptions are signalling: IEEE_UNDERFLOW_FLAG IEEE_DENORMAL
Note: The following floating-point exceptions are signalling: IEEE_UNDERFLOW_FLAG IEEE_DENORMAL
Note: The following floating-point exceptions are signalling: IEEE_UNDERFLOW_FLAG IEEE_DENORMAL
Note: The following floating-point exceptions are signalling: IEEE_UNDERFLOW_FLAG IEEE_DENORMAL
Note: The following floating-point exceptions are signalling: IEEE_UNDERFLOW_FLAG IEEE_DENORMAL
Note: The following floating-point exceptions are signalling: IEEE_UNDERFLOW_FLAG IEEE_DENORMAL
Note: The following floating-point exceptions are signalling: IEEE_UNDERFLOW_FLAG IEEE_DENORMAL
Note: The following floating-point exceptions are signalling: IEEE_UNDERFLOW_FLAG IEEE_DENORMAL
Note: The following floating-point exceptions are signalling: IEEE_UNDERFLOW_FLAG IEEE_DENORMAL