     Program PWSCF v.6.7MaX starts on 10Feb2022 at 21:58:40

     R & G space division:  proc/nbgrp/npool/nimage =      24
     Reading input from /home/kevin/QE_CoCrFeMnNi/CoCrFeMnNi/Opt/binary/Opt-B1-MnNi/Mix/MD/300K_0.0001Gpa-B1-MnNi/300K_0.0001Gpa-B1-MnNi.in

     Current dimensions of program PWSCF are:
     Max number of different atomic species (ntypx) = 10
     Max number of k-points (npk) =  40000
     Max angular momentum in pseudopotentials (lmaxx) =  3

     File ./pwscf.md deleted, as requested

     Subspace diagonalization in iterative solution of the eigenvalue problem:
     a serial algorithm will be used

     Found symmetry operation: I + (  0.0000  0.5000 -0.5000)
     This is a supercell, fractional translations are disabled

     bravais-lattice index     =            0
     lattice parameter (alat)  =       8.7604  a.u.
     unit-cell volume          =     672.3117 (a.u.)^3
     number of atoms/cell      =            8
     number of atomic types    =            2
     number of electrons       =       132.00
     number of Kohn-Sham states=           79
     kinetic-energy cutoff     =      90.0000  Ry
     charge density cutoff     =    1080.0000  Ry
     scf convergence threshold =      1.0E-08
     mixing beta               =       0.2000
     number of iterations used =            4  plain     mixing
     energy convergence thresh.=      0.0E+00
     force convergence thresh. =      0.0E+00
     press convergence thresh. =      0.0E+00
     Exchange-correlation=  SLA  PW   PBX  PBC
                           (   1   4   3   4   0   0   0)
     nstep                     =          102

     celldm(1)=   8.760392  celldm(2)=   0.000000  celldm(3)=   0.000000
     celldm(4)=   0.000000  celldm(5)=   0.000000  celldm(6)=   0.000000

     crystal axes: (cart. coord. in units of alat)
               a(1) = (   1.000000   0.000000   0.000000 )
               a(2) = (   0.000000   1.000000   0.000000 )
               a(3) = (   0.000000   0.000000   1.000000 )

     reciprocal axes: (cart. coord. in units 2 pi/alat)
               b(1) = (  1.000000  0.000000  0.000000 )
               b(2) = (  0.000000  1.000000  0.000000 )
               b(3) = (  0.000000  0.000000  1.000000 )

     PseudoPot. # 1 for Ni read from file:
     /opt/QEpot/SSSP_efficiency_pseudos/ni_pbe_v1.4.uspp.F.UPF
     MD5 check sum: 1ee80287db30b12d2bc1f57a5b5d6409
     Pseudo is Ultrasoft + core correction, Zval = 18.0
     Generated by new atomic code, or converted to UPF format
     Using radial grid of  865 points,  6 beta functions with:
                l(1) =   0
                l(2) =   0
                l(3) =   1
                l(4) =   1
                l(5) =   2
                l(6) =   2
     Q(r) pseudized with 10 coefficients,  rinner =    0.980   0.980   0.980
                                                       0.980   0.980

     PseudoPot. # 2 for Mn read from file:
     /opt/QEpot/SSSP_efficiency_pseudos/mn_pbe_v1.5.uspp.F.UPF
     MD5 check sum: 82ef2b46521d7a7d9e736dc3972e4928
     Pseudo is Ultrasoft + core correction, Zval = 15.0
     Generated by new atomic code, or converted to UPF format
     Using radial grid of  859 points,  6 beta functions with:
                l(1) =   0
                l(2) =   0
                l(3) =   1
                l(4) =   1
                l(5) =   2
                l(6) =   2
     Q(r) pseudized with  8 coefficients,  rinner =    0.950   0.950   0.950
                                                       0.950   0.950

     atomic species   valence    mass     pseudopotential
        Ni            18.00    58.69300     Ni( 1.00)
        Mn            15.00    54.93800     Mn( 1.00)

      cell mass =  34.53968 AMU

     Starting magnetic structure
     atomic species   magnetization
        Ni           0.000
        Mn           0.000

     No symmetry found

   Cartesian axes

     site n.     atom                  positions (alat units)
         1           Ni  tau(   1) = (   0.0000000   0.5000000   0.0000000  )
         2           Mn  tau(   2) = (   0.5000000   0.0000000   0.5000000  )
         3           Ni  tau(   3) = (   0.0000000   0.0000000   0.5000000  )
         4           Mn  tau(   4) = (   0.5000000   0.5000000   0.0000000  )
         5           Ni  tau(   5) = (   0.5000000   0.0000000   0.0000000  )
         6           Mn  tau(   6) = (   0.0000000   0.5000000   0.5000000  )
         7           Ni  tau(   7) = (   0.5000000   0.5000000   0.5000000  )
         8           Mn  tau(   8) = (   0.0000000   0.0000000   0.0000000  )

     number of k points=    63  Gaussian smearing, width (Ry)=  0.0100
                       cart. coord. in units 2pi/alat
        k(    1) = (   0.0000000   0.0000000   0.0000000), wk =   0.0080000
        k(    2) = (   0.0000000   0.0000000   0.2000000), wk =   0.0160000
        k(    3) = (   0.0000000   0.0000000   0.4000000), wk =   0.0160000
        k(    4) = (   0.0000000   0.2000000   0.0000000), wk =   0.0160000
        k(    5) = (   0.0000000   0.2000000   0.2000000), wk =   0.0160000
        k(    6) = (   0.0000000   0.2000000   0.4000000), wk =   0.0160000
        k(    7) = (   0.0000000   0.2000000  -0.4000000), wk =   0.0160000
        k(    8) = (   0.0000000   0.2000000  -0.2000000), wk =   0.0160000
        k(    9) = (   0.0000000   0.4000000   0.0000000), wk =   0.0160000
        k(   10) = (   0.0000000   0.4000000   0.2000000), wk =   0.0160000
        k(   11) = (   0.0000000   0.4000000   0.4000000), wk =   0.0160000
        k(   12) = (   0.0000000   0.4000000  -0.4000000), wk =   0.0160000
        k(   13) = (   0.0000000   0.4000000  -0.2000000), wk =   0.0160000
        k(   14) = (   0.2000000   0.0000000   0.0000000), wk =   0.0160000
        k(   15) = (   0.2000000   0.0000000   0.2000000), wk =   0.0160000
        k(   16) = (   0.2000000   0.0000000   0.4000000), wk =   0.0160000
        k(   17) = (   0.2000000   0.0000000  -0.4000000), wk =   0.0160000
        k(   18) = (   0.2000000   0.0000000  -0.2000000), wk =   0.0160000
        k(   19) = (   0.2000000   0.2000000   0.0000000), wk =   0.0160000
        k(   20) = (   0.2000000   0.2000000   0.2000000), wk =   0.0160000
        k(   21) = (   0.2000000   0.2000000   0.4000000), wk =   0.0160000
        k(   22) = (   0.2000000   0.2000000  -0.4000000), wk =   0.0160000
        k(   23) = (   0.2000000   0.2000000  -0.2000000), wk =   0.0160000
        k(   24) = (   0.2000000   0.4000000   0.0000000), wk =   0.0160000
        k(   25) = (   0.2000000   0.4000000   0.2000000), wk =   0.0160000
        k(   26) = (   0.2000000   0.4000000   0.4000000), wk =   0.0160000
        k(   27) = (   0.2000000   0.4000000  -0.4000000), wk =   0.0160000
        k(   28) = (   0.2000000   0.4000000  -0.2000000), wk =   0.0160000
        k(   29) = (   0.2000000  -0.4000000   0.0000000), wk =   0.0160000
        k(   30) = (   0.2000000  -0.4000000   0.2000000), wk =   0.0160000
        k(   31) = (   0.2000000  -0.4000000   0.4000000), wk =   0.0160000
        k(   32) = (   0.2000000  -0.4000000  -0.4000000), wk =   0.0160000
        k(   33) = (   0.2000000  -0.4000000  -0.2000000), wk =   0.0160000
        k(   34) = (   0.2000000  -0.2000000   0.0000000), wk =   0.0160000
        k(   35) = (   0.2000000  -0.2000000   0.2000000), wk =   0.0160000
        k(   36) = (   0.2000000  -0.2000000   0.4000000), wk =   0.0160000
        k(   37) = (   0.2000000  -0.2000000  -0.4000000), wk =   0.0160000
        k(   38) = (   0.2000000  -0.2000000  -0.2000000), wk =   0.0160000
        k(   39) = (   0.4000000   0.0000000   0.0000000), wk =   0.0160000
        k(   40) = (   0.4000000   0.0000000   0.2000000), wk =   0.0160000
        k(   41) = (   0.4000000   0.0000000   0.4000000), wk =   0.0160000
        k(   42) = (   0.4000000   0.0000000  -0.4000000), wk =   0.0160000
        k(   43) = (   0.4000000   0.0000000  -0.2000000), wk =   0.0160000
        k(   44) = (   0.4000000   0.2000000   0.0000000), wk =   0.0160000
        k(   45) = (   0.4000000   0.2000000   0.2000000), wk =   0.0160000
        k(   46) = (   0.4000000   0.2000000   0.4000000), wk =   0.0160000
        k(   47) = (   0.4000000   0.2000000  -0.4000000), wk =   0.0160000
        k(   48) = (   0.4000000   0.2000000  -0.2000000), wk =   0.0160000
        k(   49) = (   0.4000000   0.4000000   0.0000000), wk =   0.0160000
        k(   50) = (   0.4000000   0.4000000   0.2000000), wk =   0.0160000
        k(   51) = (   0.4000000   0.4000000   0.4000000), wk =   0.0160000
        k(   52) = (   0.4000000   0.4000000  -0.4000000), wk =   0.0160000
        k(   53) = (   0.4000000   0.4000000  -0.2000000), wk =   0.0160000
        k(   54) = (   0.4000000  -0.4000000   0.0000000), wk =   0.0160000
        k(   55) = (   0.4000000  -0.4000000   0.2000000), wk =   0.0160000
        k(   56) = (   0.4000000  -0.4000000   0.4000000), wk =   0.0160000
        k(   57) = (   0.4000000  -0.4000000  -0.4000000), wk =   0.0160000
        k(   58) = (   0.4000000  -0.4000000  -0.2000000), wk =   0.0160000
        k(   59) = (   0.4000000  -0.2000000   0.0000000), wk =   0.0160000
        k(   60) = (   0.4000000  -0.2000000   0.2000000), wk =   0.0160000
        k(   61) = (   0.4000000  -0.2000000   0.4000000), wk =   0.0160000
        k(   62) = (   0.4000000  -0.2000000  -0.4000000), wk =   0.0160000
        k(   63) = (   0.4000000  -0.2000000  -0.2000000), wk =   0.0160000

     Check: negative core charge=   -0.000015
     Generating pointlists ...
     new r_m :   0.2063 (alat units)  1.8068 (a.u.) for type    1
     new r_m :   0.2063 (alat units)  1.8068 (a.u.) for type    2

     Initial potential from superposition of free atoms

     starting charge  121.99966, renormalised to  132.00000
     Starting wfcs are  104 randomized atomic wfcs

     Self-consistent Calculation

     iteration #  1     ecut=    90.00 Ry     beta= 0.20
     CG style diagonalization
     ethr =  1.00E-02,  avg # of iterations =  3.4

     total energy              =   -2188.45110460 Ry
     estimated scf accuracy    <     161.43462012 Ry

     total magnetization       =     0.00 Bohr mag/cell
     absolute magnetization    =     0.02 Bohr mag/cell

     iteration #  2     ecut=    90.00 Ry     beta= 0.20
     CG style diagonalization
     c_bands:  1 eigenvalues not converged
     ethr =  1.00E-02,  avg # of iterations =  5.0

[...]

     negative rho (up, down):  0.000E+00 6.356E-08

[...]

     Magnetic moment per site:
     atom:    1    charge:   16.4491    magn:   -0.1803    constr:    0.0000
     atom:    2    charge:   12.9337    magn:   -3.0673    constr:    0.0000
     atom:    3    charge:   16.4491    magn:   -0.1803    constr:    0.0000
     atom:    4    charge:   12.9337    magn:   -3.0673    constr:    0.0000
     atom:    5    charge:   16.4492    magn:   -0.1802    constr:    0.0000
     atom:    6    charge:   12.9337    magn:   -3.0673    constr:    0.0000
     atom:    7    charge:   16.4360    magn:   -0.5666    constr:    0.0000
     atom:    8    charge:   12.9087    magn:    3.2459    constr:    0.0000

     End of self-consistent calculation

     Number of k-points >= 100: set verbosity='high' to print the bands.

     the Fermi energy is    16.5225 ev

!    total energy              =   -2217.59279623 Ry
     estimated scf accuracy    <          1.9E-09 Ry
     smearing contrib. (-TS)   =      -0.00331619 Ry
     internal energy E=F+TS    =   -2217.58948004 Ry

[...]

     convergence has been achieved in 167 iterations

[...]

     Forces acting on atoms (cartesian axes, Ry/au):

     atom    1 type  1   force =    -0.00000001    0.00000000    0.00000000
     atom    2 type  2   force =     0.00000003    0.00000001   -0.00000007
     atom    3 type  1   force =     0.00000002    0.00000001   -0.00000002
     atom    4 type  2   force =     0.00000003   -0.00000002    0.00000006
     atom    5 type  1   force =     0.00000001    0.00000002   -0.00000001
     atom    6 type  2   force =    -0.00000009   -0.00000002    0.00000003
     atom    7 type  1   force =    -0.00000000   -0.00000001    0.00000001
     atom    8 type  2   force =     0.00000001    0.00000000   -0.00000000

     Total force =     0.000000     Total SCF correction =     0.000000
     SCF correction compared to forces is large: reduce conv_thr to get better values

     Computing stress (Cartesian axis) and pressure

     negative rho (up, down):  1.488E-06 1.313E-05
          total   stress  (Ry/bohr**3)                   (kbar)     P=      167.30
   0.00113730  -0.00000000   0.00000000          167.30       -0.00        0.00
  -0.00000000   0.00113732  -0.00000000           -0.00      167.31       -0.00
   0.00000000  -0.00000000   0.00113732            0.00       -0.00      167.30

     Entering Dynamics;  it =     1   time =  0.00000 pico-seconds

     File pwscf.e deleted, as requested

     File pwscf.eal deleted, as requested

     File pwscf.ave deleted, as requested

     File pwscf.p deleted, as requested

     File pwscf.avec deleted, as requested

     File pwscf.tv deleted, as requested
  new lattice vectors (alat unit) :
   1.000086140  -0.000000706  -0.000000055
  -0.000000706   1.000085019   0.000000643
  -0.000000055   0.000000643   1.000086433
  new unit-cell volume =    672.4849 (a.u.)^3
  new positions in cryst coord
Ni      -0.000944023   0.500167688  -0.000423912
Mn       0.500044108  -0.000046017   0.499793672
Ni       0.000205054  -0.000002203   0.500773135
Mn       0.500145766   0.499715030  -0.000481303
Ni       0.500736440  -0.000508689  -0.000538373
Mn      -0.000213557   0.500256510   0.500684031
Ni       0.500002529   0.500343204   0.500189149
Mn       0.000023683   0.000074476   0.000003600
  new positions in cart coord (alat unit)
Ni      -0.000944457   0.500210212  -0.000423627
Mn       0.500087155  -0.000046052   0.499836843
Ni       0.000205045  -0.000001882   0.500816418
Mn       0.500188496   0.499757162  -0.000481050
Ni       0.500779574  -0.000509086  -0.000538447
Mn      -0.000213955   0.500299364   0.500727628
Ni       0.500045218   0.500385712   0.500232677
Mn       0.000023685   0.000074482   0.000003601

     Ekin =     0.01995091 Ry    T =    0.0 K  Etot =    -2217.57284075
     new unit-cell volume =    672.48491 a.u.^3 (    99.65198 Ang^3 )
     density =      7.57391 g/cm^3

CELL_PARAMETERS (angstrom)
   4.636199329  -0.000003271  -0.000000253
  -0.000003271   4.636194130   0.000002982
  -0.000000253   0.000002982   4.636200685

ATOMIC_POSITIONS (angstrom)
Ni           -0.0043783154        2.3188744994       -0.0019638481
Mn            2.3183040309       -0.0002134881        2.3171436379
Ni            0.0009505455       -0.0000087223        2.3216847508
Mn            2.3187738279        2.3167742530       -0.0022300528
Ni            2.3215139506       -0.0023600193       -0.0024961319
Mn           -0.0009918545        2.3192877909        2.3212731371
Ni            2.3181096237        2.3196880824        2.3189786426
Mn            0.0001097999        0.0003452843        0.0000166913

     Writing output data file ./pwscf.save/
     NEW-OLD atomic charge density approx. for the potential

     Check: negative core charge=   -0.000015

     negative rho (up, down):  6.571E-07 1.307E-05
     extrapolated charge  132.03142, renormalised to  132.00000
     Generating pointlists ...

[...]

     Total force =     0.005099     Total SCF correction =     0.000679
     SCF correction compared to forces is large: reduce conv_thr to get better values

[...]

  new lattice vectors (alat unit) :
   1.000301126  -0.000002467  -0.000000190
  -0.000002467   1.000297193   0.000002249
  -0.000000190   0.000002249   1.000302153
  new unit-cell volume =    672.9173 (a.u.)^3
  new positions in cryst coord
Ni      -0.001886413   0.500335318  -0.000846083
Mn       0.500088328  -0.000091201   0.499586554
Ni       0.000409846  -0.000004043   0.501545239
Mn       0.500289617   0.499429477  -0.000961316
Ni       0.501471972  -0.001017082  -0.001076206
Mn      -0.000426594   0.500512516   0.501366225
Ni       0.500004685   0.500685784   0.500377082
Mn       0.000048552   0.000149233   0.000008502
  new positions in cart coord (alat unit)
Ni      -0.001888215   0.500484017  -0.000845213
Mn       0.500238823  -0.000091338   0.499737410
Ni       0.000409874  -0.000002917   0.501696782
Mn       0.500439036   0.499576668  -0.000960578
Ni       0.501622981  -0.001018624  -0.001076628
Mn      -0.000428053   0.500662394   0.501518840
Ni       0.500153919   0.500834477   0.500529304
Mn       0.000048566   0.000149277   0.000008505

[...]

     Total force =     0.009989     Total SCF correction =     0.000689

[...]

     negative rho (up, down):  0.000E+00 1.323E-05
     extrapolated charge  132.26117, renormalised to  132.00000
     Generating pointlists ...
     new r_m :   0.2041 (alat units)  1.7877 (a.u.) for type    1
     new r_m :   0.2041 (alat units)  1.7877 (a.u.) for type    2

[...]

     Threshold (ethr) on eigenvalues was too large:
     Diagonalizing with lowered threshold

     CG style diagonalization
     c_bands:  3 eigenvalues not converged
     c_bands:  2 eigenvalues not converged
     c_bands:  1 eigenvalues not converged
     c_bands:  1 eigenvalues not converged
     c_bands:  3 eigenvalues not converged
     c_bands:  1 eigenvalues not converged
     c_bands:  1 eigenvalues not converged
     c_bands:  1 eigenvalues not converged
     c_bands:  1 eigenvalues not converged
     c_bands:  1 eigenvalues not converged
     c_bands:  1 eigenvalues not converged
     c_bands:  1 eigenvalues not converged
     c_bands:  2 eigenvalues not converged
     c_bands:  1 eigenvalues not converged
     c_bands:  1 eigenvalues not converged
     c_bands:  1 eigenvalues not converged
     c_bands:  2 eigenvalues not converged
     c_bands:  1 eigenvalues not converged
     c_bands:  2 eigenvalues not converged
     c_bands:  1 eigenvalues not converged
     c_bands:  1 eigenvalues not converged
     c_bands:  1 eigenvalues not converged
     c_bands:  1 eigenvalues not converged
     c_bands:  2 eigenvalues not converged
     c_bands:  1 eigenvalues not converged
     c_bands:  2 eigenvalues not converged
     c_bands:  1 eigenvalues not converged
     c_bands:  2 eigenvalues not converged
     c_bands:  2 eigenvalues not converged
     c_bands:  1 eigenvalues not converged
     c_bands:  1 eigenvalues not converged
     c_bands:  1 eigenvalues not converged
     c_bands:  3 eigenvalues not converged
     c_bands:  2 eigenvalues not converged
     c_bands:  2 eigenvalues not converged
     c_bands:  3 eigenvalues not converged
     c_bands:  3 eigenvalues not converged
     c_bands:  3 eigenvalues not converged
     c_bands:  1 eigenvalues not converged
     c_bands:  3 eigenvalues not converged
     c_bands:  1 eigenvalues not converged
     c_bands:  4 eigenvalues not converged
     c_bands:  1 eigenvalues not converged
     c_bands:  5 eigenvalues not converged
     c_bands:  3 eigenvalues not converged
     c_bands:  2 eigenvalues not converged
     c_bands:  5 eigenvalues not converged
     c_bands:  2 eigenvalues not converged
     c_bands:  1 eigenvalues not converged
     c_bands:  2 eigenvalues not converged
     c_bands:  4 eigenvalues not converged
     c_bands:  2 eigenvalues not converged
     c_bands:  1 eigenvalues not converged
     c_bands:  3 eigenvalues not converged
     c_bands:  2 eigenvalues not converged
     c_bands:  1 eigenvalues not converged
     c_bands:  4 eigenvalues not converged
     c_bands:  1 eigenvalues not converged
     c_bands:  4 eigenvalues not converged
     c_bands:  5 eigenvalues not converged
     c_bands:  1 eigenvalues not converged
     c_bands:  2 eigenvalues not converged
     c_bands:  3 eigenvalues not converged
     c_bands:  5 eigenvalues not converged
     c_bands:  1 eigenvalues not converged
     c_bands:  1 eigenvalues not converged
     c_bands:  5 eigenvalues not converged
     c_bands:  5 eigenvalues not converged
     c_bands:  1 eigenvalues not converged
     ethr =  4.32E-08,  avg # of iterations =  5.3

[...]

     iteration #  1     ecut=    90.00 Ry     beta= 0.20
     CG style diagonalization
     c_bands:  1 eigenvalues not converged
     ethr =  1.00E-06,  avg # of iterations = 16.8

[...]

     Writing output data file ./pwscf.save/
     NEW-OLD atomic charge density approx. for the potential

     Check: negative core charge=   -0.000024

     negative rho (up, down):  4.541E-05 3.146E-05
     extrapolated charge  131.60888, renormalised to  132.00000
     Generating pointlists ...

     Self-consistent Calculation

[...]

     total energy              =   -2217.70647674 Ry
     estimated scf accuracy    <       0.00000002 Ry

[...]

     iteration # 29     ecut=    90.00 Ry     beta= 0.20
     CG style diagonalization
     ethr =  1.16E-11,  avg # of iterations =  3.0

[...]

     Magnetic moment per site:
     atom:    1    charge:   16.2879    magn:   -0.2096    constr:    0.0000
     atom:    2    charge:   12.7785    magn:   -3.3414    constr:    0.0000
     atom:    3    charge:   16.2893    magn:   -0.1715    constr:    0.0000
     atom:    4    charge:   12.7752    magn:   -3.3374    constr:    0.0000
     atom:    5    charge:   16.2656    magn:   -0.2100    constr:    0.0000
     atom:    6    charge:   12.7873    magn:   -3.3546    constr:    0.0000
     atom:    7    charge:   16.2892    magn:   -0.5864    constr:    0.0000
     atom:    8    charge:   12.7506    magn:    3.4077    constr:    0.0000

     End of self-consistent calculation

     Number of k-points >= 100: set verbosity='high' to print the bands.

     the Fermi energy is    14.0801 ev

!    total energy              =   -2217.70647674 Ry
     estimated scf accuracy    <          7.8E-09 Ry
     smearing contrib. (-TS)   =      -0.00409227 Ry
     internal energy E=F+TS    =   -2217.70238447 Ry

     total magnetization       =    -8.30 Bohr mag/cell
     absolute magnetization    =    16.29 Bohr mag/cell

     convergence has been achieved in  29 iterations

     negative rho (up, down):  3.940E-05 3.005E-05

     Forces acting on atoms (cartesian axes, Ry/au):

     atom    1 type  1   force =    -0.04089338    0.01888190   -0.02073036
     atom    2 type  2   force =    -0.00305527    0.01022573   -0.01053624
     atom    3 type  1   force =    -0.00848079   -0.01450083    0.03216130
     atom    4 type  2   force =    -0.00322695   -0.01032061   -0.00834415
     atom    5 type  1   force =     0.02636590   -0.02788372   -0.02544849
     atom    6 type  2   force =     0.00756247   -0.00713698    0.00343403
     atom    7 type  1   force =     0.01415941    0.02643923    0.01592438
     atom    8 type  2   force =     0.00756861    0.00429527    0.01353953

     Total force =     0.088538     Total SCF correction =     0.000070

     Computing stress (Cartesian axis) and pressure

     negative rho (up, down):  3.940E-05 3.005E-05
          total   stress  (Ry/bohr**3)                   (kbar)     P=      -34.66
  -0.00024504   0.00005030   0.00005553          -36.05        7.40        8.17
   0.00005030  -0.00020744  -0.00001256            7.40      -30.52       -1.85
   0.00005553  -0.00001256  -0.00025431            8.17       -1.85      -37.41

     Entering Dynamics;  it =   102   time =  0.09772 pico-seconds

  new lattice vectors (alat unit) :
   1.040233933   0.006389471   0.002733511
   0.006389471   1.038657221   0.000432750
   0.002733511   0.000432750   1.044206773
  new unit-cell volume =    758.4745 (a.u.)^3
  new positions in cryst coord
Ni      -0.049080418   0.524325680   0.010405474
Mn       0.505478155   0.031520497   0.448409436
Ni       0.003022405   0.004830718   0.551160054
Mn       0.438868160   0.444695982  -0.001934412
Ni       0.551067331  -0.052328200  -0.046909236
Mn       0.001684483   0.500437711   0.496214762
Ni       0.497131232   0.524739696   0.488713296
Mn       0.051682347   0.021670752   0.053710317
  new positions in cart coord (alat unit)
Ni      -0.047676509   0.544285559   0.010958206
Mn       0.527242661   0.036162779   0.469627540
Ni       0.004681476   0.005275286   0.575535413
Mn       0.459361636   0.464689991  -0.000627833
Ni       0.572776360  -0.050850334  -0.047499239
Mn       0.006306197   0.520008742   0.518371984
Ni       0.521821488   0.548412570   0.511903728
Mn       0.054047013   0.022861948   0.056235329

     Ekin =     0.03398837 Ry    T =  363.6 K  Etot =    -2217.67248319
     new unit-cell volume =    758.47448 a.u.^3 (   112.39432 Ang^3 )
     density =      6.71524 g/cm^3

CELL_PARAMETERS (angstrom)
   4.822316467   0.029620307   0.012672010
   0.029620307   4.815007147   0.002006140
   0.012672010   0.002006140   4.840733756

ATOMIC_POSITIONS (angstrom)
Ni           -0.2210187618        2.5231989938        0.0508000504
Mn            2.4441915267        0.1676434091        2.1770993514
Ni            0.0217023857        0.0244551707        2.6680670674
Mn            2.1295086734        2.1542098587       -0.0029105104
Ni            2.6552766509       -0.2357319804       -0.2201969707
Mn            0.0292342681        2.4106565279        2.4030688423
Ni            2.4190600555        2.5423309925        2.3730833028
Mn            0.2505511428        0.1059834208        0.2606957384

     Maximum number of iterations reached, stopping

     General routines

     Parallel routines

   This run was terminated on:   4:45:25  12Feb2022

   JOB DONE.
Note: The following floating-point exceptions are signalling: IEEE_UNDERFLOW_FLAG IEEE_DENORMAL
Note: The following floating-point exceptions are signalling: IEEE_UNDERFLOW_FLAG IEEE_DENORMAL
Note: The following floating-point exceptions are signalling: IEEE_UNDERFLOW_FLAG IEEE_DENORMAL
Note: The following floating-point exceptions are signalling: IEEE_UNDERFLOW_FLAG IEEE_DENORMAL
Note: The following floating-point exceptions are signalling: IEEE_UNDERFLOW_FLAG IEEE_DENORMAL
Note: The following floating-point exceptions are signalling: IEEE_UNDERFLOW_FLAG IEEE_DENORMAL
Note: The following floating-point exceptions are signalling: IEEE_UNDERFLOW_FLAG IEEE_DENORMAL
Note: The following floating-point exceptions are signalling: IEEE_UNDERFLOW_FLAG IEEE_DENORMAL
Note: The following floating-point exceptions are signalling: IEEE_UNDERFLOW_FLAG IEEE_DENORMAL
Note: The following floating-point exceptions are signalling: IEEE_UNDERFLOW_FLAG IEEE_DENORMAL
Note: The following floating-point exceptions are signalling: IEEE_UNDERFLOW_FLAG IEEE_DENORMAL
Note: The following floating-point exceptions are signalling: IEEE_UNDERFLOW_FLAG IEEE_DENORMAL
Note: The following floating-point exceptions are signalling: IEEE_UNDERFLOW_FLAG IEEE_DENORMAL
Note: The following floating-point exceptions are signalling: IEEE_UNDERFLOW_FLAG IEEE_DENORMAL
Note: The following floating-point exceptions are signalling: IEEE_UNDERFLOW_FLAG IEEE_DENORMAL
Note: The following floating-point exceptions are signalling: IEEE_UNDERFLOW_FLAG IEEE_DENORMAL
Note: The following floating-point exceptions are signalling: IEEE_UNDERFLOW_FLAG IEEE_DENORMAL
Note: The following floating-point exceptions are signalling: IEEE_UNDERFLOW_FLAG IEEE_DENORMAL
Note: The following floating-point exceptions are signalling: IEEE_UNDERFLOW_FLAG IEEE_DENORMAL
Note: The following floating-point exceptions are signalling: IEEE_UNDERFLOW_FLAG IEEE_DENORMAL
Note: The following floating-point exceptions are signalling: IEEE_UNDERFLOW_FLAG IEEE_DENORMAL
Note: The following floating-point exceptions are signalling: IEEE_UNDERFLOW_FLAG IEEE_DENORMAL
Note: The following floating-point exceptions are signalling: IEEE_UNDERFLOW_FLAG IEEE_DENORMAL
Note: The following floating-point exceptions are signalling: IEEE_UNDERFLOW_FLAG IEEE_DENORMAL