     Program PWSCF v.6.7MaX starts on  1Mar2022 at 21:47: 4

     R & G space division:  proc/nbgrp/npool/nimage =      24
     Reading input from /home/kevin/QE_CoCrFeMnNi/CoCrFeMnNi/Opt/binary/Opt-B1-CoNi/Mix/MD/300K_0.0001Gpa-B1-CoNi/300K_0.0001Gpa-B1-CoNi.in

     Current dimensions of program PWSCF are:
     Max number of different atomic species (ntypx) = 10
     Max number of k-points (npk) =  40000
     Max angular momentum in pseudopotentials (lmaxx) =  3

     File ./pwscf.update deleted, as requested

     File ./pwscf.md deleted, as requested

     Subspace diagonalization in iterative solution of the eigenvalue problem:
     a serial algorithm will be used

     Found symmetry operation: I + (  0.0000  0.5000 -0.5000)
     This is a supercell, fractional translations are disabled

     bravais-lattice index     =            0
     lattice parameter (alat)  =       8.7065  a.u.
     unit-cell volume          =     659.9881 (a.u.)^3
     number of atoms/cell      =            8
     number of atomic types    =            2
     number of electrons       =       140.00
     number of Kohn-Sham states=           84
     kinetic-energy cutoff     =      90.0000  Ry
     charge density cutoff     =    1080.0000  Ry
     scf convergence threshold =      1.0E-10
     mixing beta               =       0.2000
     number of iterations used =            8  plain     mixing
     energy convergence thresh.=      0.0E+00
     force convergence thresh. =      0.0E+00
     press convergence thresh. =      0.0E+00
     Exchange-correlation= SLA  PW   PBE  PBE
                           (   1   4   3   4   0   0   0)
     nstep                     =          102

     celldm(1)=   8.706535  celldm(2)=   0.000000  celldm(3)=   0.000000
     celldm(4)=   0.000000  celldm(5)=   0.000000  celldm(6)=   0.000000

     crystal axes: (cart. coord. in units of alat)
               a(1) = (   1.000000   0.000000   0.000000 )
               a(2) = (   0.000000   1.000000   0.000000 )
               a(3) = (   0.000000   0.000000   1.000000 )

     reciprocal axes: (cart. coord. in units 2 pi/alat)
               b(1) = (  1.000000  0.000000  0.000000 )
               b(2) = (  0.000000  1.000000  0.000000 )
               b(3) = (  0.000000  0.000000  1.000000 )

     PseudoPot. # 1 for Ni read from file:
     /opt/QEpot/SSSP_efficiency_pseudos/ni_pbe_v1.4.uspp.F.UPF
     MD5 check sum: 1ee80287db30b12d2bc1f57a5b5d6409
     Pseudo is Ultrasoft + core correction, Zval = 18.0
     Generated by new atomic code, or converted to UPF format
     Using radial grid of  865 points,  6 beta functions with:
                l(1) =   0
                l(2) =   0
                l(3) =   1
                l(4) =   1
                l(5) =   2
                l(6) =   2
     Q(r) pseudized with 10 coefficients,  rinner =    0.980   0.980   0.980
                                                       0.980   0.980

     PseudoPot. # 2 for Co read from file:
     /opt/QEpot/SSSP_efficiency_pseudos/Co_pbe_v1.2.uspp.F.UPF
     MD5 check sum: 5f91765df6ddd3222702df6e7b74a16d
     Pseudo is Ultrasoft + core correction, Zval = 17.0
     Generated by new atomic code, or converted to UPF format
     Using radial grid of  863 points,  6 beta functions with:
                l(1) =   0
                l(2) =   0
                l(3) =   1
                l(4) =   1
                l(5) =   2
                l(6) =   2
     Q(r) pseudized with  8 coefficients,  rinner =    1.200   1.200   1.200
                                                       1.200   1.200

     atomic species   valence    mass     pseudopotential
        Ni            18.00    58.69300     Ni( 1.00)
        Co            17.00    58.93300     Co( 1.00)

      cell mass =  35.75402 AMU

     Starting magnetic structure
     atomic species   magnetization
        Ni           0.200
        Co           0.200

     No symmetry found

   Cartesian axes

     site n.     atom                  positions (alat units)
         1           Ni  tau(   1) = (   0.0000000   0.5000000   0.0000000  )
         2           Co  tau(   2) = (   0.5000000   0.0000000   0.5000000  )
         3           Ni  tau(   3) = (   0.0000000   0.0000000   0.5000000  )
         4           Co  tau(   4) = (   0.5000000   0.5000000   0.0000000  )
         5           Ni  tau(   5) = (   0.5000000   0.0000000   0.0000000  )
         6           Co  tau(   6) = (   0.0000000   0.5000000   0.5000000  )
         7           Ni  tau(   7) = (   0.5000000   0.5000000   0.5000000  )
         8           Co  tau(   8) = (   0.0000000   0.0000000   0.0000000  )

     number of k points=    63  Gaussian smearing, width (Ry)=  0.0100
                       cart. coord. in units 2pi/alat
        k(    1) = (   0.0000000   0.0000000   0.0000000), wk =   0.0080000
        k(    2) = (   0.0000000   0.0000000   0.2000000), wk =   0.0160000
        k(    3) = (   0.0000000   0.0000000   0.4000000), wk =   0.0160000
        k(    4) = (   0.0000000   0.2000000   0.0000000), wk =   0.0160000
        k(    5) = (   0.0000000   0.2000000   0.2000000), wk =   0.0160000
        k(    6) = (   0.0000000   0.2000000   0.4000000), wk =   0.0160000
        k(    7) = (   0.0000000   0.2000000  -0.4000000), wk =   0.0160000
        k(    8) = (   0.0000000   0.2000000  -0.2000000), wk =   0.0160000
        k(    9) = (   0.0000000   0.4000000   0.0000000), wk =   0.0160000
        k(   10) = (   0.0000000   0.4000000   0.2000000), wk =   0.0160000
        k(   11) = (   0.0000000   0.4000000   0.4000000), wk =   0.0160000
        k(   12) = (   0.0000000   0.4000000  -0.4000000), wk =   0.0160000
        k(   13) = (   0.0000000   0.4000000  -0.2000000), wk =   0.0160000
        k(   14) = (   0.2000000   0.0000000   0.0000000), wk =   0.0160000
        k(   15) = (   0.2000000   0.0000000   0.2000000), wk =   0.0160000
        k(   16) = (   0.2000000   0.0000000   0.4000000), wk =   0.0160000
        k(   17) = (   0.2000000   0.0000000  -0.4000000), wk =   0.0160000
        k(   18) = (   0.2000000   0.0000000  -0.2000000), wk =   0.0160000
        k(   19) = (   0.2000000   0.2000000   0.0000000), wk =   0.0160000
        k(   20) = (   0.2000000   0.2000000   0.2000000), wk =   0.0160000
        k(   21) = (   0.2000000   0.2000000   0.4000000), wk =   0.0160000
        k(   22) = (   0.2000000   0.2000000  -0.4000000), wk =   0.0160000
        k(   23) = (   0.2000000   0.2000000  -0.2000000), wk =   0.0160000
        k(   24) = (   0.2000000   0.4000000   0.0000000), wk =   0.0160000
        k(   25) = (   0.2000000   0.4000000   0.2000000), wk =   0.0160000
        k(   26) = (   0.2000000   0.4000000   0.4000000), wk =   0.0160000
        k(   27) = (   0.2000000   0.4000000  -0.4000000), wk =   0.0160000
        k(   28) = (   0.2000000   0.4000000  -0.2000000), wk =   0.0160000
        k(   29) = (   0.2000000  -0.4000000   0.0000000), wk =   0.0160000
        k(   30) = (   0.2000000  -0.4000000   0.2000000), wk =   0.0160000
        k(   31) = (   0.2000000  -0.4000000   0.4000000), wk =   0.0160000
        k(   32) = (   0.2000000  -0.4000000  -0.4000000), wk =   0.0160000
        k(   33) = (   0.2000000  -0.4000000  -0.2000000), wk =   0.0160000
        k(   34) = (   0.2000000  -0.2000000   0.0000000), wk =   0.0160000
        k(   35) = (   0.2000000  -0.2000000   0.2000000), wk =   0.0160000
        k(   36) = (   0.2000000  -0.2000000   0.4000000), wk =   0.0160000
        k(   37) = (   0.2000000  -0.2000000  -0.4000000), wk =   0.0160000
        k(   38) = (   0.2000000  -0.2000000  -0.2000000), wk =   0.0160000
        k(   39) = (   0.4000000   0.0000000   0.0000000), wk =   0.0160000
        k(   40) = (   0.4000000   0.0000000   0.2000000), wk =   0.0160000
        k(   41) = (   0.4000000   0.0000000   0.4000000), wk =   0.0160000
        k(   42) = (   0.4000000   0.0000000  -0.4000000), wk =   0.0160000
        k(   43) = (   0.4000000   0.0000000  -0.2000000), wk =   0.0160000
        k(   44) = (   0.4000000   0.2000000   0.0000000), wk =   0.0160000
        k(   45) = (   0.4000000   0.2000000   0.2000000), wk =   0.0160000
        k(   46) = (   0.4000000   0.2000000   0.4000000), wk =   0.0160000
        k(   47) = (   0.4000000   0.2000000  -0.4000000), wk =   0.0160000
        k(   48) = (   0.4000000   0.2000000  -0.2000000), wk =   0.0160000
        k(   49) = (   0.4000000   0.4000000   0.0000000), wk =   0.0160000
        k(   50) = (   0.4000000   0.4000000   0.2000000), wk =   0.0160000
        k(   51) = (   0.4000000   0.4000000   0.4000000), wk =   0.0160000
        k(   52) = (   0.4000000   0.4000000  -0.4000000), wk =   0.0160000
        k(   53) = (   0.4000000   0.4000000  -0.2000000), wk =   0.0160000
        k(   54) = (   0.4000000  -0.4000000   0.0000000), wk =   0.0160000
        k(   55) = (   0.4000000  -0.4000000   0.2000000), wk =   0.0160000
        k(   56) = (   0.4000000  -0.4000000   0.4000000), wk =   0.0160000
        k(   57) = (   0.4000000  -0.4000000  -0.4000000), wk =   0.0160000
        k(   58) = (   0.4000000  -0.4000000  -0.2000000), wk =   0.0160000
        k(   59) = (   0.4000000  -0.2000000   0.0000000), wk =   0.0160000
        k(   60) = (   0.4000000  -0.2000000   0.2000000), wk =   0.0160000
        k(   61) = (   0.4000000  -0.2000000   0.4000000), wk =   0.0160000
        k(   62) = (   0.4000000  -0.2000000  -0.4000000), wk =   0.0160000
        k(   63) = (   0.4000000  -0.2000000  -0.2000000), wk =   0.0160000

     Check: negative core charge=   -0.000012
     Generating pointlists ...
     new r_m :   0.2063 (alat units)  1.7957 (a.u.) for type    1
     new r_m :   0.2063 (alat units)  1.7957 (a.u.) for type    2

     Initial potential from superposition of free atoms

     starting charge  127.99997, renormalised to  140.00000
     Starting wfcs are  104 randomized atomic wfcs

     Self-consistent Calculation

     iteration #  1     ecut=    90.00 Ry     beta= 0.20
     CG style diagonalization
     ethr =  1.00E-02,  avg # of iterations =  3.7

     total energy              =   -2548.71662500 Ry
     estimated scf accuracy    <     166.00461492 Ry

     total magnetization       =    13.40 Bohr mag/cell
     absolute magnetization    =    13.47 Bohr mag/cell

[...]

     iteration # 11     ecut=    90.00 Ry     beta= 0.20
     CG style diagonalization
     c_bands:  1 eigenvalues not converged
     c_bands:  1 eigenvalues not converged
     c_bands:  1 eigenvalues not converged
     c_bands:  1 eigenvalues not converged
     c_bands:  1 eigenvalues not converged
     c_bands:  1 eigenvalues not converged
     c_bands:  1 eigenvalues not converged
     c_bands:  1 eigenvalues not converged
     c_bands:  1 eigenvalues not converged
     c_bands:  1 eigenvalues not converged
     c_bands:  1 eigenvalues not converged
     c_bands:  1 eigenvalues not converged
     c_bands:  1 eigenvalues not converged
     c_bands:  1 eigenvalues not converged
     c_bands:  1 eigenvalues not converged
     c_bands:  1 eigenvalues not converged
     c_bands:  1 eigenvalues not converged
     c_bands:  1 eigenvalues not converged
     c_bands:  1 eigenvalues not converged
     c_bands:  1 eigenvalues not converged
     ethr =  8.06E-06,  avg # of iterations =  3.2

[...]

     Magnetic moment per site:
     atom:    1    charge:   16.3305    magn:    0.8879    constr:    0.0000
     atom:    2    charge:   15.1473    magn:    1.9456    constr:    0.0000
     atom:    3    charge:   16.3305    magn:    0.8879    constr:    0.0000
     atom:    4    charge:   15.1473    magn:    1.9456    constr:    0.0000
     atom:    5    charge:   16.3305    magn:    0.8879    constr:    0.0000
     atom:    6    charge:   15.1473    magn:    1.9456    constr:    0.0000
     atom:    7    charge:   16.3305    magn:    0.8879    constr:    0.0000
     atom:    8    charge:   15.1473    magn:    1.9456    constr:    0.0000

     End of self-consistent calculation

     Number of k-points >= 100: set verbosity='high' to print the bands.

     the Fermi energy is    15.9906 ev

!    total energy              =   -2566.62418972 Ry
     estimated scf accuracy    <          4.4E-11 Ry
     smearing contrib. (-TS)   =      -0.01231303 Ry
     internal energy E=F+TS    =   -2566.61187669 Ry

[...]

     convergence has been achieved in  50 iterations

     Forces acting on atoms (cartesian axes, Ry/au):

     atom    1 type  1   force =     0.00000002   -0.00000008    0.00000005
     atom    2 type  2   force =    -0.00000004    0.00000009   -0.00000001
     atom    3 type  1   force =     0.00000005    0.00000009   -0.00000013
     atom    4 type  2   force =    -0.00000002   -0.00000004    0.00000004
     atom    5 type  1   force =    -0.00000001    0.00000005    0.00000003
     atom    6 type  2   force =     0.00000005   -0.00000006   -0.00000003
     atom    7 type  1   force =    -0.00000007   -0.00000011   -0.00000006
     atom    8 type  2   force =     0.00000002    0.00000006    0.00000012

     Total force =     0.000000     Total SCF correction =     0.000001
     SCF correction compared to forces is large: reduce conv_thr to get better values

     Computing stress (Cartesian axis) and pressure

          total   stress  (Ry/bohr**3)                   (kbar)     P=       85.47
   0.00058100  -0.00000000  -0.00000000           85.47       -0.00       -0.00
  -0.00000000   0.00058100   0.00000000           -0.00       85.47        0.00
  -0.00000000   0.00000000   0.00058100           -0.00        0.00       85.47

     Entering Dynamics;  it =     1   time =  0.00000 pico-seconds

     File pwscf.e deleted, as requested

     File pwscf.eal deleted, as requested

     File pwscf.ave deleted, as requested

     File pwscf.p deleted, as requested

     File pwscf.avec deleted, as requested

     File pwscf.tv deleted, as requested
  new lattice vectors (alat unit) :
   1.000043100  -0.000000690  -0.000000053
  -0.000000690   1.000042002   0.000000629
  -0.000000053   0.000000629   1.000043385
  new unit-cell volume =    660.0729 (a.u.)^3
  new positions in cryst coord
Ni      -0.000949863   0.500168725  -0.000426534
Co       0.500042850  -0.000044704   0.499799556
Ni       0.000206323  -0.000002217   0.500777917
Co       0.500141609   0.499723157  -0.000467578
Ni       0.500740996  -0.000511835  -0.000541703
Co      -0.000207467   0.500249196   0.500664524
Ni       0.500002544   0.500345327   0.500190319
Co       0.000023008   0.000072352   0.000003498
  new positions in cart coord (alat unit)
Ni      -0.000950249   0.500189734  -0.000426238
Co       0.500064375  -0.000044737   0.499821213
Ni       0.000206305  -0.000001902   0.500799644
Co       0.500162820   0.499743801  -0.000467310
Ni       0.500762578  -0.000512203  -0.000541753
Co      -0.000207848   0.500270522   0.500686560
Ni       0.500023722   0.500366312   0.500212308
Co       0.000023009   0.000072355   0.000003498

     Ekin =     0.01995091 Ry    T =    0.0 K  Etot =    -2566.60423432
     new unit-cell volume =    660.07286 a.u.^3 (    97.81271 Ang^3 )
     density =      7.98762 g/cm^3

CELL_PARAMETERS (angstrom)
   4.607498576  -0.000003180  -0.000000246
  -0.000003180   4.607493517   0.000002898
  -0.000000246   0.000002898   4.607499889

ATOMIC_POSITIONS (angstrom)
Ni           -0.0043780811        2.3045241595       -0.0019638051
Co            2.3039465969       -0.0002061169        2.3028262749
Ni            0.0009505082       -0.0000087634        2.3073341983
Co            2.3044001618        2.3024696137       -0.0021530385
Ni            2.3071634275       -0.0023598719       -0.0024960208
Co           -0.0009576161        2.3048963777        2.3068131898
Ni            2.3037592964        2.3053377115        2.3046281685
Co            0.0001060085        0.0003333615        0.0000161153

     Writing output data file ./pwscf.save/
     NEW-OLD atomic charge density approx. for the potential

     Check: negative core charge=   -0.000012
     extrapolated charge  140.01645, renormalised to  140.00000
     Generating pointlists ...

[...]

     Total force =     0.003640     Total SCF correction =     0.000019

[...]

  new lattice vectors (alat unit) :
   1.000150709  -0.000002415  -0.000000185
  -0.000002415   1.000146863   0.000002201
  -0.000000185   0.000002201   1.000151704
  new unit-cell volume =    660.2846 (a.u.)^3
  new positions in cryst coord
Ni      -0.001898781   0.500337394  -0.000851913
Co       0.500085695  -0.000088890   0.499598434
Ni       0.000412584  -0.000004174   0.501555103
Co       0.500281942   0.499445842  -0.000934385
Ni       0.501481381  -0.001023561  -0.001083063
Co      -0.000414598   0.500498089   0.501327897
Ni       0.500004816   0.500690340   0.500379873
Co       0.000046961   0.000144959   0.000008053
  new positions in cart coord (alat unit)
Ni      -0.001900275   0.500410878  -0.000850941
Co       0.500160970  -0.000089011   0.499674132
Ni       0.000412553  -0.000003072   0.501631191
Co       0.500356133   0.499517982  -0.000933520
Ni       0.501556962  -0.001024924  -0.001083323
Co      -0.000415962   0.500572698   0.501405053
Ni       0.500078869   0.500763767   0.500456793
Co       0.000046968   0.000144980   0.000008055

[...]

     Check: negative core charge=   -0.000013
     extrapolated charge  140.13710, renormalised to  140.00000
     Generating pointlists ...
     new r_m :   0.2038 (alat units)  1.7747 (a.u.) for type    1
     new r_m :   0.2038 (alat units)  1.7747 (a.u.) for type    2

[...]

     Check: negative core charge=   -0.000013
     extrapolated charge  140.30123, renormalised to  140.00000
     Generating pointlists ...
     new r_m :   0.2016 (alat units)  1.7552 (a.u.) for type    1
     new r_m :   0.2016 (alat units)  1.7552 (a.u.) for type    2

[...]

     iteration #  1     ecut=    90.00 Ry     beta= 0.20
     CG style diagonalization
     c_bands:  1 eigenvalues not converged
     ethr =  1.00E-06,  avg # of iterations = 16.1

[...]

     Writing output data file ./pwscf.save/
     NEW-OLD atomic charge density approx. for the potential

     Check: negative core charge=   -0.000013
     extrapolated charge  139.74556, renormalised to  140.00000
     Generating pointlists ...

     Self-consistent Calculation

[...]

     total energy              =   -2566.74668168 Ry
     estimated scf accuracy    <          8.6E-10 Ry

[...]

     iteration # 30     ecut=    90.00 Ry     beta= 0.20
     CG style diagonalization
     ethr =  3.36E-13,  avg # of iterations =  3.0

     Magnetic moment per site:
     atom:    1    charge:   16.1730    magn:    0.8071    constr:    0.0000
     atom:    2    charge:   14.9960    magn:    1.8978    constr:    0.0000
     atom:    3    charge:   16.1773    magn:    0.8336    constr:    0.0000
     atom:    4    charge:   14.9921    magn:    1.8792    constr:    0.0000
     atom:    5    charge:   16.1516    magn:    0.7866    constr:    0.0000
     atom:    6    charge:   15.0033    magn:    1.9571    constr:    0.0000
     atom:    7    charge:   16.1815    magn:    0.8487    constr:    0.0000
     atom:    8    charge:   14.9927    magn:    1.8703    constr:    0.0000

     End of self-consistent calculation

     Number of k-points >= 100: set verbosity='high' to print the bands.

     the Fermi energy is    15.6702 ev

!    total energy              =   -2566.74668168 Ry
     estimated scf accuracy    <          8.1E-11 Ry
     smearing contrib. (-TS)   =      -0.01001625 Ry
     internal energy E=F+TS    =   -2566.73666543 Ry

     total magnetization       =    10.60 Bohr mag/cell
     absolute magnetization    =    11.48 Bohr mag/cell

     convergence has been achieved in  30 iterations

     Forces acting on atoms (cartesian axes, Ry/au):

     atom    1 type  1   force =    -0.03448984    0.02127680   -0.00810302
     atom    2 type  2   force =    -0.00200434    0.02375754   -0.02533831
     atom    3 type  1   force =    -0.01046757   -0.01096527    0.04256733
     atom    4 type  2   force =    -0.02682388   -0.02736812    0.00065863
     atom    5 type  1   force =     0.03052309   -0.03270400   -0.03711986
     atom    6 type  2   force =     0.00915217   -0.01054268   -0.00504962
     atom    7 type  1   force =     0.01307050    0.02803100    0.00861262
     atom    8 type  2   force =     0.02103988    0.00851473    0.02377223

     Total force =     0.110180     Total SCF correction =     0.000043

     Computing stress (Cartesian axis) and pressure

          total   stress  (Ry/bohr**3)                   (kbar)     P=       -6.66
  -0.00008994  -0.00001374   0.00002864          -13.23       -2.02        4.21
  -0.00001374   0.00002451   0.00001946           -2.02        3.61        2.86
   0.00002864   0.00001946  -0.00007042            4.21        2.86      -10.36

     Entering Dynamics;  it =   102   time =  0.09772 pico-seconds

  new lattice vectors (alat unit) :
   1.004504306   0.002160435   0.003033898
   0.002160435   0.999366811   0.003134134
   0.003033898   0.003134134   1.007483479
  new unit-cell volume =    667.4835 (a.u.)^3
  new positions in cryst coord
Ni      -0.062456830   0.523930822   0.010431455
Co       0.503685564   0.032225496   0.436760865
Ni       0.009518288   0.007280830   0.559793120
Co       0.433622557   0.433482876  -0.009286181
Ni       0.560677737  -0.061437522  -0.056543923
Co      -0.002897482   0.507073887   0.507466903
Ni       0.495596773   0.529565024   0.486779380
Co       0.062266978   0.027875896   0.064600253
  new positions in cart coord (alat unit)
Ni      -0.061574588   0.523496835   0.011962100
Co       0.507349027   0.034662138   0.441658485
Ni       0.011275246   0.009051250   0.564034017
Co       0.436484064   0.434116109  -0.006681514
Ni       0.562898921  -0.060364528  -0.055458582
Co      -0.000275430   0.508337023   0.512844968
Ni       0.500450022   0.531826046   0.493585501
Co       0.062803663   0.028195235   0.065359966

     Ekin =     0.03532971 Ry    T =  399.9 K  Etot =    -2566.71134742
     new unit-cell volume =    667.48352 a.u.^3 (    98.91085 Ang^3 )
     density =      7.89893 g/cm^3

CELL_PARAMETERS (angstrom)
   4.628052689   0.009953774   0.013978076
   0.009953774   4.604382709   0.014439895
   0.013978076   0.014439895   4.641778633

ATOMIC_POSITIONS (angstrom)
Ni           -0.2836925995        2.4119069661        0.0551129847
Co            2.3375091707        0.1596988695        2.0348531398
Ni            0.0519484411        0.0417018238        2.5986739258
Co            2.0110130285        2.0001031502       -0.0307837393
Ni            2.5934441992       -0.2781174912       -0.2555143266
Co           -0.0012689892        2.3420611643        2.3628306197
Ni            2.3057233864        2.4502821397        2.2740964785
Co            0.2893553143        0.1299039041        0.3011329724

     Maximum number of iterations reached, stopping

     General routines

     Parallel routines

   This run was terminated on:   8:35:55   3Mar2022

   JOB DONE.
Note: The following floating-point exceptions are signalling: IEEE_UNDERFLOW_FLAG IEEE_DENORMAL
Note: The following floating-point exceptions are signalling: IEEE_UNDERFLOW_FLAG IEEE_DENORMAL
Note: The following floating-point exceptions are signalling: IEEE_UNDERFLOW_FLAG IEEE_DENORMAL
Note: The following floating-point exceptions are signalling: IEEE_UNDERFLOW_FLAG IEEE_DENORMAL
Note: The following floating-point exceptions are signalling: IEEE_UNDERFLOW_FLAG IEEE_DENORMAL
Note: The following floating-point exceptions are signalling: IEEE_UNDERFLOW_FLAG IEEE_DENORMAL
Note: The following floating-point exceptions are signalling: IEEE_UNDERFLOW_FLAG IEEE_DENORMAL
Note: The following floating-point exceptions are signalling: IEEE_UNDERFLOW_FLAG IEEE_DENORMAL
Note: The following floating-point exceptions are signalling: IEEE_UNDERFLOW_FLAG IEEE_DENORMAL
Note: The following floating-point exceptions are signalling: IEEE_UNDERFLOW_FLAG IEEE_DENORMAL
Note: The following floating-point exceptions are signalling: IEEE_UNDERFLOW_FLAG IEEE_DENORMAL
Note: The following floating-point exceptions are signalling: IEEE_UNDERFLOW_FLAG IEEE_DENORMAL
Note: The following floating-point exceptions are signalling: IEEE_UNDERFLOW_FLAG IEEE_DENORMAL
Note: The following floating-point exceptions are signalling: IEEE_UNDERFLOW_FLAG IEEE_DENORMAL
Note: The following floating-point exceptions are signalling: IEEE_UNDERFLOW_FLAG IEEE_DENORMAL
Note: The following floating-point exceptions are signalling: IEEE_UNDERFLOW_FLAG IEEE_DENORMAL
Note: The following floating-point exceptions are signalling: IEEE_UNDERFLOW_FLAG IEEE_DENORMAL
Note: The following floating-point exceptions are signalling: IEEE_UNDERFLOW_FLAG IEEE_DENORMAL
Note: The following floating-point exceptions are signalling: IEEE_UNDERFLOW_FLAG IEEE_DENORMAL
Note: The following floating-point exceptions are signalling: IEEE_UNDERFLOW_FLAG IEEE_DENORMAL
Note: The following floating-point exceptions are signalling: IEEE_UNDERFLOW_FLAG IEEE_DENORMAL
Note: The following floating-point exceptions are signalling: IEEE_UNDERFLOW_FLAG IEEE_DENORMAL
Note: The following floating-point exceptions are signalling: IEEE_UNDERFLOW_FLAG IEEE_DENORMAL
Note: The following floating-point exceptions are signalling: IEEE_UNDERFLOW_FLAG IEEE_DENORMAL