     Program PWSCF v.6.7MaX starts on  9Feb2022 at 11: 5:33

     R & G space division:  proc/nbgrp/npool/nimage =      24
     Reading input from /home/kevin/QE_CoCrFeMnNi/CoCrFeMnNi/Opt/binary/Opt-B1-CrMn/Mix/MD/600K_0.0001Gpa-B1-CrMn/600K_0.0001Gpa-B1-CrMn.in

     Current dimensions of program PWSCF are:
     Max number of different atomic species (ntypx) = 10
     Max number of k-points (npk) =  40000
     Max angular momentum in pseudopotentials (lmaxx) =  3

     Subspace diagonalization in iterative solution of the eigenvalue problem:
     a serial algorithm will be used

     Found symmetry operation: I + (  0.0000  0.5000 -0.5000)
     This is a supercell, fractional translations are disabled

     bravais-lattice index     =            0
     lattice parameter (alat)  =       8.7234  a.u.
     unit-cell volume          =     663.8202 (a.u.)^3
     number of atoms/cell      =            8
     number of atomic types    =            2
     number of electrons       =       116.00
     number of Kohn-Sham states=           70
     kinetic-energy cutoff     =      90.0000  Ry
     charge density cutoff     =    1080.0000  Ry
     scf convergence threshold =      1.0E-08
     mixing beta               =       0.2000
     number of iterations used =            4  plain     mixing
     energy convergence thresh.=      0.0E+00
     force convergence thresh. =      0.0E+00
     press convergence thresh. =      0.0E+00
     Exchange-correlation=  SLA  PW   PBX  PBC
                           (   1   4   3   4   0   0   0)
     nstep                     =          102

     celldm(1)=   8.723354  celldm(2)=   0.000000  celldm(3)=   0.000000
     celldm(4)=   0.000000  celldm(5)=   0.000000  celldm(6)=   0.000000

     crystal axes: (cart. coord. in units of alat)
               a(1) = (   1.000000   0.000000   0.000000 )
               a(2) = (   0.000000   1.000000   0.000000 )
               a(3) = (   0.000000   0.000000   1.000000 )

     reciprocal axes: (cart. coord. in units 2 pi/alat)
               b(1) = (  1.000000  0.000000  0.000000 )
               b(2) = (  0.000000  1.000000  0.000000 )
               b(3) = (  0.000000  0.000000  1.000000 )

     PseudoPot. # 1 for Mn read from file:
     /opt/QEpot/SSSP_efficiency_pseudos/mn_pbe_v1.5.uspp.F.UPF
     MD5 check sum: 82ef2b46521d7a7d9e736dc3972e4928
     Pseudo is Ultrasoft + core correction, Zval = 15.0
     Generated by new atomic code, or converted to UPF format
     Using radial grid of  859 points,  6 beta functions with:
                l(1) =   0
                l(2) =   0
                l(3) =   1
                l(4) =   1
                l(5) =   2
                l(6) =   2
     Q(r) pseudized with  8 coefficients,  rinner =    0.950   0.950   0.950
                                                       0.950   0.950

     PseudoPot. # 2 for Cr read from file:
     /opt/QEpot/SSSP_efficiency_pseudos/cr_pbe_v1.5.uspp.F.UPF
     MD5 check sum: 0d52af634a40206e4dee301ad30da4bf
     Pseudo is Ultrasoft + core correction, Zval = 14.0
     Generated by new atomic code, or converted to UPF format
     Using radial grid of  857 points,  6 beta functions with:
                l(1) =   0
                l(2) =   0
                l(3) =   1
                l(4) =   1
                l(5) =   2
                l(6) =   2
     Q(r) pseudized with  8 coefficients,  rinner =    0.950   0.950   0.950
                                                       0.950   0.950

     atomic species   valence    mass     pseudopotential
        Mn            15.00    54.93800     Mn( 1.00)
        Cr            14.00    51.99610     Cr( 1.00)

      cell mass =  32.50407 AMU

     Starting magnetic structure
     atomic species   magnetization
        Mn          -0.000
        Cr           0.000

     No symmetry found

   Cartesian axes

     site n.     atom                  positions (alat units)
         1           Mn  tau(   1) = (   0.0000000   0.5000000   0.0000000  )
         2           Cr  tau(   2) = (   0.5000000   0.0000000   0.5000000  )
         3           Mn  tau(   3) = (   0.0000000   0.0000000   0.5000000  )
         4           Cr  tau(   4) = (   0.5000000   0.5000000   0.0000000  )
         5           Mn  tau(   5) = (   0.5000000   0.0000000   0.0000000  )
         6           Cr  tau(   6) = (   0.0000000   0.5000000   0.5000000  )
         7           Mn  tau(   7) = (   0.5000000   0.5000000   0.5000000  )
         8           Cr  tau(   8) = (   0.0000000   0.0000000   0.0000000  )

     number of k points=    63  Gaussian smearing, width (Ry)=  0.0100
                       cart. coord. in units 2pi/alat
        k(    1) = (   0.0000000   0.0000000   0.0000000), wk =   0.0080000
        k(    2) = (   0.0000000   0.0000000   0.2000000), wk =   0.0160000
        k(    3) = (   0.0000000   0.0000000   0.4000000), wk =   0.0160000
        k(    4) = (   0.0000000   0.2000000   0.0000000), wk =   0.0160000
        k(    5) = (   0.0000000   0.2000000   0.2000000), wk =   0.0160000
        k(    6) = (   0.0000000   0.2000000   0.4000000), wk =   0.0160000
        k(    7) = (   0.0000000   0.2000000  -0.4000000), wk =   0.0160000
        k(    8) = (   0.0000000   0.2000000  -0.2000000), wk =   0.0160000
        k(    9) = (   0.0000000   0.4000000   0.0000000), wk =   0.0160000
        k(   10) = (   0.0000000   0.4000000   0.2000000), wk =   0.0160000
        k(   11) = (   0.0000000   0.4000000   0.4000000), wk =   0.0160000
        k(   12) = (   0.0000000   0.4000000  -0.4000000), wk =   0.0160000
        k(   13) = (   0.0000000   0.4000000  -0.2000000), wk =   0.0160000
        k(   14) = (   0.2000000   0.0000000   0.0000000), wk =   0.0160000
        k(   15) = (   0.2000000   0.0000000   0.2000000), wk =   0.0160000
        k(   16) = (   0.2000000   0.0000000   0.4000000), wk =   0.0160000
        k(   17) = (   0.2000000   0.0000000  -0.4000000), wk =   0.0160000
        k(   18) = (   0.2000000   0.0000000  -0.2000000), wk =   0.0160000
        k(   19) = (   0.2000000   0.2000000   0.0000000), wk =   0.0160000
        k(   20) = (   0.2000000   0.2000000   0.2000000), wk =   0.0160000
        k(   21) = (   0.2000000   0.2000000   0.4000000), wk =   0.0160000
        k(   22) = (   0.2000000   0.2000000  -0.4000000), wk =   0.0160000
        k(   23) = (   0.2000000   0.2000000  -0.2000000), wk =   0.0160000
        k(   24) = (   0.2000000   0.4000000   0.0000000), wk =   0.0160000
        k(   25) = (   0.2000000   0.4000000   0.2000000), wk =   0.0160000
        k(   26) = (   0.2000000   0.4000000   0.4000000), wk =   0.0160000
        k(   27) = (   0.2000000   0.4000000  -0.4000000), wk =   0.0160000
        k(   28) = (   0.2000000   0.4000000  -0.2000000), wk =   0.0160000
        k(   29) = (   0.2000000  -0.4000000   0.0000000), wk =   0.0160000
        k(   30) = (   0.2000000  -0.4000000   0.2000000), wk =   0.0160000
        k(   31) = (   0.2000000  -0.4000000   0.4000000), wk =   0.0160000
        k(   32) = (   0.2000000  -0.4000000  -0.4000000), wk =   0.0160000
        k(   33) = (   0.2000000  -0.4000000  -0.2000000), wk =   0.0160000
        k(   34) = (   0.2000000  -0.2000000   0.0000000), wk =   0.0160000
        k(   35) = (   0.2000000  -0.2000000   0.2000000), wk =   0.0160000
        k(   36) = (   0.2000000  -0.2000000   0.4000000), wk =   0.0160000
        k(   37) = (   0.2000000  -0.2000000  -0.4000000), wk =   0.0160000
        k(   38) = (   0.2000000  -0.2000000  -0.2000000), wk =   0.0160000
        k(   39) = (   0.4000000   0.0000000   0.0000000), wk =   0.0160000
        k(   40) = (   0.4000000   0.0000000   0.2000000), wk =   0.0160000
        k(   41) = (   0.4000000   0.0000000   0.4000000), wk =   0.0160000
        k(   42) = (   0.4000000   0.0000000  -0.4000000), wk =   0.0160000
        k(   43) = (   0.4000000   0.0000000  -0.2000000), wk =   0.0160000
        k(   44) = (   0.4000000   0.2000000   0.0000000), wk =   0.0160000
        k(   45) = (   0.4000000   0.2000000   0.2000000), wk =   0.0160000
        k(   46) = (   0.4000000   0.2000000   0.4000000), wk =   0.0160000
        k(   47) = (   0.4000000   0.2000000  -0.4000000), wk =   0.0160000
        k(   48) = (   0.4000000   0.2000000  -0.2000000), wk =   0.0160000
        k(   49) = (   0.4000000   0.4000000   0.0000000), wk =   0.0160000
        k(   50) = (   0.4000000   0.4000000   0.2000000), wk =   0.0160000
        k(   51) = (   0.4000000   0.4000000   0.4000000), wk =   0.0160000
        k(   52) = (   0.4000000   0.4000000  -0.4000000), wk =   0.0160000
        k(   53) = (   0.4000000   0.4000000  -0.2000000), wk =   0.0160000
        k(   54) = (   0.4000000  -0.4000000   0.0000000), wk =   0.0160000
        k(   55) = (   0.4000000  -0.4000000   0.2000000), wk =   0.0160000
        k(   56) = (   0.4000000  -0.4000000   0.4000000), wk =   0.0160000
        k(   57) = (   0.4000000  -0.4000000  -0.4000000), wk =   0.0160000
        k(   58) = (   0.4000000  -0.4000000  -0.2000000), wk =   0.0160000
        k(   59) = (   0.4000000  -0.2000000   0.0000000), wk =   0.0160000
        k(   60) = (   0.4000000  -0.2000000   0.2000000), wk =   0.0160000
        k(   61) = (   0.4000000  -0.2000000   0.4000000), wk =   0.0160000
        k(   62) = (   0.4000000  -0.2000000  -0.4000000), wk =   0.0160000
        k(   63) = (   0.4000000  -0.2000000  -0.2000000), wk =   0.0160000

     Check: negative core charge=   -0.000013
     Generating pointlists ...
     new r_m :   0.2063 (alat units)  1.7992 (a.u.) for type    1
     new r_m :   0.2063 (alat units)  1.7992 (a.u.) for type    2

     Initial potential from superposition of free atoms

     starting charge  109.99960, renormalised to  116.00000

     negative rho (up, down):  1.633E-03 1.633E-03
     Starting wfcs are   92 randomized atomic wfcs

     Self-consistent Calculation

     iteration #  1     ecut=    90.00 Ry     beta= 0.20
     Davidson diagonalization with overlap
     ethr =  1.00E-02,  avg # of iterations =  3.0

     negative rho (up, down):  1.429E-03 1.429E-03

     total energy              =   -1541.63961068 Ry
     estimated scf accuracy    <      28.30885434 Ry

     total magnetization       =    -0.00 Bohr mag/cell
     absolute magnetization    =     0.01 Bohr mag/cell

[...]

     iteration #326     ecut=    90.00 Ry     beta= 0.20
     Davidson diagonalization with overlap
     c_bands:  1 eigenvalues not converged
     ethr =  7.72E-10,  avg # of iterations = 13.0

[...]

     Magnetic moment per site:
     atom:    1    charge:   13.0711    magn:   -1.7696    constr:    0.0000
     atom:    2    charge:   11.9050    magn:    1.4704    constr:    0.0000
     atom:    3    charge:   13.0711    magn:   -1.7696    constr:    0.0000
     atom:    4    charge:   11.9050    magn:    1.4704    constr:    0.0000
     atom:    5    charge:   13.0711    magn:   -1.7696    constr:    0.0000
     atom:    6    charge:   11.9050    magn:    1.4705    constr:    0.0000
     atom:    7    charge:   13.0711    magn:   -1.7696    constr:    0.0000
     atom:    8    charge:   11.9050    magn:    1.4705    constr:    0.0000

     End of self-consistent calculation

     Number of k-points >= 100: set verbosity='high' to print the bands.

     the Fermi energy is    17.9458 ev

!    total energy              =   -1546.31969920 Ry
     estimated scf accuracy    <          3.3E-10 Ry
     smearing contrib. (-TS)   =      -0.00486269 Ry
     internal energy E=F+TS    =   -1546.31483650 Ry

[...]

     convergence has been achieved in 459 iterations

[...]

     Forces acting on atoms (cartesian axes, Ry/au):

     atom    1 type  1   force =    -0.00000001   -0.00000000    0.00000000
     atom    2 type  2   force =    -0.00000000   -0.00000001   -0.00000000
     atom    3 type  1   force =     0.00000001   -0.00000000   -0.00000000
     atom    4 type  2   force =    -0.00000000   -0.00000000   -0.00000000
     atom    5 type  1   force =    -0.00000000    0.00000000    0.00000001
     atom    6 type  2   force =    -0.00000000    0.00000000   -0.00000000
     atom    7 type  1   force =     0.00000000    0.00000001    0.00000000
     atom    8 type  2   force =     0.00000000    0.00000000   -0.00000000

     Total force =     0.000000     Total SCF correction =     0.000000
     SCF correction compared to forces is large: reduce conv_thr to get better values

     Computing stress (Cartesian axis) and pressure

     negative rho (up, down):  1.131E-04 7.689E-03
          total   stress  (Ry/bohr**3)                   (kbar)     P=      116.64
   0.00079287   0.00000000  -0.00000000          116.63        0.00       -0.00
   0.00000000   0.00079287  -0.00000000            0.00      116.64       -0.00
  -0.00000000  -0.00000000   0.00079287           -0.00       -0.00      116.64

     Entering Dynamics;  it =     1   time =  0.00000 pico-seconds

  new lattice vectors (alat unit) :
   1.000065996  -0.000001512  -0.000000117
  -0.000001512   1.000063591   0.000001379
  -0.000000117   0.000001379   1.000066622
  new unit-cell volume =    663.9504 (a.u.)^3
  new positions in cryst coord
Mn      -0.001385780   0.500246157  -0.000622282
Cr       0.500064390  -0.000067177   0.499698794
Mn       0.000301010  -0.000003234   0.501134925
Cr       0.500212795   0.499583989  -0.000702626
Mn       0.501081059  -0.000746731  -0.000790305
Cr      -0.000311759   0.500374465   0.500998577
Mn       0.500003712   0.500503807   0.500277662
Cr       0.000034574   0.000108723   0.000005256
  new positions in cart coord (alat unit)
Mn      -0.001386628   0.500277970  -0.000621634
Cr       0.500097335  -0.000067249   0.499732026
Mn       0.000300971  -0.000002544   0.501168311
Cr       0.500245052   0.499615001  -0.000702043
Mn       0.501114130  -0.000747537  -0.000790417
Cr      -0.000312595   0.500406975   0.501032644
Mn       0.500035895   0.500535568   0.500311623
Cr       0.000034576   0.000108730   0.000005256

     Ekin =     0.03990183 Ry    T =    0.0 K  Etot =    -1546.27979286
     new unit-cell volume =    663.95044 a.u.^3 (    98.38730 Ang^3 )
     density =      7.21915 g/cm^3

CELL_PARAMETERS (angstrom)
   4.616504652  -0.000006982  -0.000000540
  -0.000006982   4.616493547   0.000006364
  -0.000000540   0.000006364   4.616507539

ATOMIC_POSITIONS (angstrom)
Mn           -0.0064009540        2.3093831634       -0.0028695852
Cr            2.3085493161       -0.0003104346        2.3068629776
Mn            0.0013893421       -0.0000117442        2.3134931581
Cr            2.3092312069        2.3063227654       -0.0032407713
Mn            2.3132430458       -0.0034507801       -0.0036487248
Cr           -0.0014430012        2.3099786791        2.3128668926
Mn            2.3082656972        2.3105722896        2.3095385145
Cr            0.0001596093        0.0005019188        0.0000242636

     Writing output data file ./pwscf.save/
     NEW-OLD atomic charge density approx. for the potential

     Check: negative core charge=   -0.000013

     negative rho (up, down):  1.118E-04 7.694E-03
     extrapolated charge  116.02158, renormalised to  116.00000
     Generating pointlists ...

[...]

     Total force =     0.007091     Total SCF correction =     0.000264

[...]

     negative rho (up, down):  8.391E-05 7.621E-03
     extrapolated charge  116.12374, renormalised to  116.00000
     Generating pointlists ...
     new r_m :   0.2035 (alat units)  1.7754 (a.u.) for type    1
     new r_m :   0.2035 (alat units)  1.7754 (a.u.) for type    2

[...]

     negative rho (up, down):  2.631E-05 8.028E-03
     extrapolated charge  116.39080, renormalised to  116.00000
     Generating pointlists ...
     new r_m :   0.1991 (alat units)  1.7366 (a.u.) for type    1
     new r_m :   0.1991 (alat units)  1.7366 (a.u.) for type    2

[...]

     iteration #  1     ecut=    90.00 Ry     beta= 0.20
     Davidson diagonalization with overlap
     c_bands:  1 eigenvalues not converged
     ethr =  1.00E-06,  avg # of iterations =  9.2

[...]

     Writing output data file ./pwscf.save/
     NEW-OLD atomic charge density approx. for the potential

     Check: negative core charge=   -0.000025

     negative rho (up, down):  0.000E+00 1.199E-02
     extrapolated charge  115.60098, renormalised to  116.00000
     Generating pointlists ...

     Self-consistent Calculation

[...]

     total energy              =   -1546.49984323 Ry
     estimated scf accuracy    <       0.00000001 Ry

[...]

     iteration # 30     ecut=    90.00 Ry     beta= 0.20
     Davidson diagonalization with overlap
     ethr =  9.48E-12,  avg # of iterations =  2.2

[...]

     Magnetic moment per site:
     atom:    1    charge:   12.7049    magn:   -2.4960    constr:    0.0000
     atom:    2    charge:   11.5718    magn:    2.1258    constr:    0.0000
     atom:    3    charge:   12.7023    magn:   -2.4795    constr:    0.0000
     atom:    4    charge:   11.5695    magn:    2.1532    constr:    0.0000
     atom:    5    charge:   12.6864    magn:   -2.5976    constr:    0.0000
     atom:    6    charge:   11.5867    magn:    2.1333    constr:    0.0000
     atom:    7    charge:   12.7164    magn:   -2.4912    constr:    0.0000
     atom:    8    charge:   11.5691    magn:    2.1265    constr:    0.0000

     End of self-consistent calculation

     Number of k-points >= 100: set verbosity='high' to print the bands.

     the Fermi energy is    15.3847 ev

!    total energy              =   -1546.49984323 Ry
     estimated scf accuracy    <          6.0E-09 Ry
     smearing contrib. (-TS)   =      -0.00452571 Ry
     internal energy E=F+TS    =   -1546.49531751 Ry

     total magnetization       =    -0.93 Bohr mag/cell
     absolute magnetization    =    21.16 Bohr mag/cell

     convergence has been achieved in  30 iterations

     negative rho (up, down):  0.000E+00 1.184E-02

     Forces acting on atoms (cartesian axes, Ry/au):

     atom    1 type  1   force =    -0.01802943   -0.02802358   -0.01736944
     atom    2 type  2   force =     0.03095397    0.01961618    0.01234008
     atom    3 type  1   force =     0.01792798   -0.01276753    0.02919350
     atom    4 type  2   force =    -0.00028934    0.02684503   -0.02460151
     atom    5 type  1   force =    -0.02512122    0.01702609   -0.00261910
     atom    6 type  2   force =     0.01347652   -0.01198831   -0.00668775
     atom    7 type  1   force =     0.01869960    0.02644016   -0.00332444
     atom    8 type  2   force =    -0.03761809   -0.03714804    0.01306865

     Total force =     0.104372     Total SCF correction =     0.000140

     Computing stress (Cartesian axis) and pressure

     negative rho (up, down):  0.000E+00 1.184E-02
          total   stress  (Ry/bohr**3)                   (kbar)     P=      -45.60
  -0.00029554   0.00002756   0.00005917          -43.48        4.05        8.70
   0.00002756  -0.00031047  -0.00007741            4.05      -45.67      -11.39
   0.00005917  -0.00007741  -0.00032402            8.70      -11.39      -47.66

     Entering Dynamics;  it =   102   time =  0.09772 pico-seconds

  new lattice vectors (alat unit) :
   1.045504785   0.008045250   0.004200012
   0.008045250   1.035285275  -0.002690663
   0.004200012  -0.002690663   1.052611914
  new unit-cell volume =    756.2561 (a.u.)^3
  new positions in cryst coord
Mn      -0.085245502   0.526464687  -0.000009633
Cr       0.515472013   0.057405221   0.418396646
Mn       0.012207146  -0.002869869   0.593172676
Cr       0.405467388   0.424990704  -0.008906662
Mn       0.564517312  -0.074747045  -0.078637899
Cr       0.013591544   0.490935012   0.484219025
Mn       0.506943185   0.555360944   0.491214595
Cr       0.067136188   0.022222220   0.100226503
  new positions in cart coord (alat unit)
Mn      -0.084889081   0.544355343  -0.001784712
Cr       0.541147566   0.062452116   0.442419825
Mn       0.015230873  -0.004468951   0.624439618
Cr       0.427299843   0.443272669  -0.008815797
Mn       0.589273913  -0.072631244  -0.080203090
Cr       0.020193445   0.507064266   0.508430859
Mn       0.536542650   0.577713799   0.517693213
Cr       0.070790941   0.023276789   0.105721791

     Ekin =     0.05963899 Ry    T =  684.2 K  Etot =    -1546.44019908
     new unit-cell volume =    756.25613 a.u.^3 (   112.06560 Ang^3 )
     density =      6.33801 g/cm^3

CELL_PARAMETERS (angstrom)
   4.826259190   0.037138482   0.019388096
   0.037138482   4.779083885  -0.012420639
   0.019388096  -0.012420639   4.859067118

ATOMIC_POSITIONS (angstrom)
Mn           -0.3918649750        2.5128531332       -0.0082385854
Cr            2.4980453957        0.2882914592        2.0422983947
Mn            0.0703087575       -0.0206295731        2.8825381632
Cr            1.9725015365        2.0462352932       -0.0406954843
Mn            2.7202062359       -0.3352803491       -0.3702335062
Cr            0.0932169812        2.3407100657        2.3470185303
Mn            2.4767881816        2.6668424391        2.3897754095
Cr            0.3267851431        0.1074503134        0.4880329336

     Maximum number of iterations reached, stopping

     General routines

     Parallel routines

   This run was terminated on:  19:24:31  10Feb2022

   JOB DONE.
Note: The following floating-point exceptions are signalling: IEEE_UNDERFLOW_FLAG IEEE_DENORMAL