     Program PWSCF v.6.7MaX starts on  9Feb2022 at 11: 9:32

     R & G space division:  proc/nbgrp/npool/nimage =      24
     Reading input from /home/kevin/QE_CoCrFeMnNi/CoCrFeMnNi/Opt/binary/Opt-B1-FeNi/Mix/MD/300K_0.0001Gpa-B1-FeNi/300K_0.0001Gpa-B1-FeNi.in

     Current dimensions of program PWSCF are:
     Max number of different atomic species (ntypx) = 10
     Max number of k-points (npk) =  40000
     Max angular momentum in pseudopotentials (lmaxx) =  3
     file Fe.pbe-spn-kjpaw_psl.0.2.1.UPF: wavefunction(s)  3D renormalized

     Subspace diagonalization in iterative solution of the eigenvalue problem:
     a serial algorithm will be used

     Found symmetry operation: I + (  0.0000  0.5000 -0.5000)
     This is a supercell, fractional translations are disabled

     bravais-lattice index     =            0
     lattice parameter (alat)  =       8.7071  a.u.
     unit-cell volume          =     660.1170 (a.u.)^3
     number of atoms/cell      =            8
     number of atomic types    =            2
     number of electrons       =       136.00
     number of Kohn-Sham states=           82
     kinetic-energy cutoff     =      90.0000  Ry
     charge density cutoff     =    1080.0000  Ry
     scf convergence threshold =      1.0E-08
     mixing beta               =       0.2000
     number of iterations used =            4  plain     mixing
     energy convergence thresh.=      0.0E+00
     force convergence thresh. =      0.0E+00
     press convergence thresh. =      0.0E+00
     Exchange-correlation= SLA  PW   PBX  PBC
                           (   1   4   3   4   0   0   0)
     nstep                     =          102

     celldm(1)=   8.707102  celldm(2)=   0.000000  celldm(3)=   0.000000
     celldm(4)=   0.000000  celldm(5)=   0.000000  celldm(6)=   0.000000

     crystal axes: (cart. coord. in units of alat)
               a(1) = (   1.000000   0.000000   0.000000 )
               a(2) = (   0.000000   1.000000   0.000000 )
               a(3) = (   0.000000   0.000000   1.000000 )

     reciprocal axes: (cart. coord. in units 2 pi/alat)
               b(1) = (  1.000000  0.000000  0.000000 )
               b(2) = (  0.000000  1.000000  0.000000 )
               b(3) = (  0.000000  0.000000  1.000000 )

     PseudoPot. # 1 for Ni read from file:
     /opt/QEpot/SSSP_efficiency_pseudos/ni_pbe_v1.4.uspp.F.UPF
     MD5 check sum: 1ee80287db30b12d2bc1f57a5b5d6409
     Pseudo is Ultrasoft + core correction, Zval = 18.0
     Generated by new atomic code, or converted to UPF format
     Using radial grid of  865 points,  6 beta functions with:
                l(1) =   0
                l(2) =   0
                l(3) =   1
                l(4) =   1
                l(5) =   2
                l(6) =   2
     Q(r) pseudized with 10 coefficients,  rinner =    0.980   0.980   0.980
                                                       0.980   0.980

     PseudoPot. # 2 for Fe read from file:
     /opt/QEpot/SSSP_efficiency_pseudos/Fe.pbe-spn-kjpaw_psl.0.2.1.UPF
     MD5 check sum: e86618425769142926afa95317d90200
     Pseudo is Projector augmented-wave + core cor, Zval = 16.0
     Generated using "atomic" code by A. Dal Corso  v.5.0.99 svn rev. 10869
     Shape of augmentation charge: PSQ
     Using radial grid of 1191 points,  6 beta functions with:
                l(1) =   0
                l(2) =   0
                l(3) =   1
                l(4) =   1
                l(5) =   2
                l(6) =   2
     Q(r) pseudized with 0 coefficients

     atomic species   valence    mass     pseudopotential
        Ni            18.00    58.69300     Ni( 1.00)
        Fe            16.00    55.84500     Fe( 1.00)

      cell mass =  34.81538 AMU

     Starting magnetic structure
     atomic species   magnetization
        Ni           0.000
        Fe          -0.000

     No symmetry found

   Cartesian axes

     site n.     atom                  positions (alat units)
         1           Ni  tau(   1) = (   0.0000000   0.5000000   0.0000000  )
         2           Fe  tau(   2) = (   0.5000000   0.0000000   0.5000000  )
         3           Ni  tau(   3) = (   0.0000000   0.0000000   0.5000000  )
         4           Fe  tau(   4) = (   0.5000000   0.5000000   0.0000000  )
         5           Ni  tau(   5) = (   0.5000000   0.0000000   0.0000000  )
         6           Fe  tau(   6) = (   0.0000000   0.5000000   0.5000000  )
         7           Ni  tau(   7) = (   0.5000000   0.5000000   0.5000000  )
         8           Fe  tau(   8) = (   0.0000000   0.0000000   0.0000000  )

     number of k points=    63  Gaussian smearing, width (Ry)=  0.0100
                       cart. coord. in units 2pi/alat
        k(    1) = (   0.0000000   0.0000000   0.0000000), wk =   0.0080000
        k(    2) = (   0.0000000   0.0000000   0.2000000), wk =   0.0160000
        k(    3) = (   0.0000000   0.0000000   0.4000000), wk =   0.0160000
        k(    4) = (   0.0000000   0.2000000   0.0000000), wk =   0.0160000
        k(    5) = (   0.0000000   0.2000000   0.2000000), wk =   0.0160000
        k(    6) = (   0.0000000   0.2000000   0.4000000), wk =   0.0160000
        k(    7) = (   0.0000000   0.2000000  -0.4000000), wk =   0.0160000
        k(    8) = (   0.0000000   0.2000000  -0.2000000), wk =   0.0160000
        k(    9) = (   0.0000000   0.4000000   0.0000000), wk =   0.0160000
        k(   10) = (   0.0000000   0.4000000   0.2000000), wk =   0.0160000
        k(   11) = (   0.0000000   0.4000000   0.4000000), wk =   0.0160000
        k(   12) = (   0.0000000   0.4000000  -0.4000000), wk =   0.0160000
        k(   13) = (   0.0000000   0.4000000  -0.2000000), wk =   0.0160000
        k(   14) = (   0.2000000   0.0000000   0.0000000), wk =   0.0160000
        k(   15) = (   0.2000000   0.0000000   0.2000000), wk =   0.0160000
        k(   16) = (   0.2000000   0.0000000   0.4000000), wk =   0.0160000
        k(   17) = (   0.2000000   0.0000000  -0.4000000), wk =   0.0160000
        k(   18) = (   0.2000000   0.0000000  -0.2000000), wk =   0.0160000
        k(   19) = (   0.2000000   0.2000000   0.0000000), wk =   0.0160000
        k(   20) = (   0.2000000   0.2000000   0.2000000), wk =   0.0160000
        k(   21) = (   0.2000000   0.2000000   0.4000000), wk =   0.0160000
        k(   22) = (   0.2000000   0.2000000  -0.4000000), wk =   0.0160000
        k(   23) = (   0.2000000   0.2000000  -0.2000000), wk =   0.0160000
        k(   24) = (   0.2000000   0.4000000   0.0000000), wk =   0.0160000
        k(   25) = (   0.2000000   0.4000000   0.2000000), wk =   0.0160000
        k(   26) = (   0.2000000   0.4000000   0.4000000), wk =   0.0160000
        k(   27) = (   0.2000000   0.4000000  -0.4000000), wk =   0.0160000
        k(   28) = (   0.2000000   0.4000000  -0.2000000), wk =   0.0160000
        k(   29) = (   0.2000000  -0.4000000   0.0000000), wk =   0.0160000
        k(   30) = (   0.2000000  -0.4000000   0.2000000), wk =   0.0160000
        k(   31) = (   0.2000000  -0.4000000   0.4000000), wk =   0.0160000
        k(   32) = (   0.2000000  -0.4000000  -0.4000000), wk =   0.0160000
        k(   33) = (   0.2000000  -0.4000000  -0.2000000), wk =   0.0160000
        k(   34) = (   0.2000000  -0.2000000   0.0000000), wk =   0.0160000
        k(   35) = (   0.2000000  -0.2000000   0.2000000), wk =   0.0160000
        k(   36) = (   0.2000000  -0.2000000   0.4000000), wk =   0.0160000
        k(   37) = (   0.2000000  -0.2000000  -0.4000000), wk =   0.0160000
        k(   38) = (   0.2000000  -0.2000000  -0.2000000), wk =   0.0160000
        k(   39) = (   0.4000000   0.0000000   0.0000000), wk =   0.0160000
        k(   40) = (   0.4000000   0.0000000   0.2000000), wk =   0.0160000
        k(   41) = (   0.4000000   0.0000000   0.4000000), wk =   0.0160000
        k(   42) = (   0.4000000   0.0000000  -0.4000000), wk =   0.0160000
        k(   43) = (   0.4000000   0.0000000  -0.2000000), wk =   0.0160000
        k(   44) = (   0.4000000   0.2000000   0.0000000), wk =   0.0160000
        k(   45) = (   0.4000000   0.2000000   0.2000000), wk =   0.0160000
        k(   46) = (   0.4000000   0.2000000   0.4000000), wk =   0.0160000
        k(   47) = (   0.4000000   0.2000000  -0.4000000), wk =   0.0160000
        k(   48) = (   0.4000000   0.2000000  -0.2000000), wk =   0.0160000
        k(   49) = (   0.4000000   0.4000000   0.0000000), wk =   0.0160000
        k(   50) = (   0.4000000   0.4000000   0.2000000), wk =   0.0160000
        k(   51) = (   0.4000000   0.4000000   0.4000000), wk =   0.0160000
        k(   52) = (   0.4000000   0.4000000  -0.4000000), wk =   0.0160000
        k(   53) = (   0.4000000   0.4000000  -0.2000000), wk =   0.0160000
        k(   54) = (   0.4000000  -0.4000000   0.0000000), wk =   0.0160000
        k(   55) = (   0.4000000  -0.4000000   0.2000000), wk =   0.0160000
        k(   56) = (   0.4000000  -0.4000000   0.4000000), wk =   0.0160000
        k(   57) = (   0.4000000  -0.4000000  -0.4000000), wk =   0.0160000
        k(   58) = (   0.4000000  -0.4000000  -0.2000000), wk =   0.0160000
        k(   59) = (   0.4000000  -0.2000000   0.0000000), wk =   0.0160000
        k(   60) = (   0.4000000  -0.2000000   0.2000000), wk =   0.0160000
        k(   61) = (   0.4000000  -0.2000000   0.4000000), wk =   0.0160000
        k(   62) = (   0.4000000  -0.2000000  -0.4000000), wk =   0.0160000
        k(   63) = (   0.4000000  -0.2000000  -0.2000000), wk =   0.0160000

     Check: negative core charge=   -0.000010
     Generating pointlists ...
     new r_m :   0.2063 (alat units)  1.7958 (a.u.) for type    1
     new r_m :   0.2063 (alat units)  1.7958 (a.u.) for type    2

     Initial potential from superposition of free atoms

     starting charge  127.99825, renormalised to  136.00000
     Starting wfcs are  104 randomized atomic wfcs
     Checking if some PAW data can be deallocated...

     Self-consistent Calculation

     iteration #  1     ecut=    90.00 Ry     beta= 0.20
     Davidson diagonalization with overlap
     ethr =  1.00E-02,  avg # of iterations =  2.9

     total energy              =   -2672.14028741 Ry
     estimated scf accuracy    <      99.88724800 Ry

     total magnetization       =    -0.00 Bohr mag/cell
     absolute magnetization    =     0.01 Bohr mag/cell

[...]

     iteration # 73     ecut=    90.00 Ry     beta= 0.20
     Davidson diagonalization with overlap
     c_bands:  1 eigenvalues not converged
     ethr =  1.65E-07,  avg # of iterations = 10.0

[...]

     negative rho (up, down):  1.810E-06 0.000E+00

[...]

     Magnetic moment per site:
     atom:    1    charge:   16.3689    magn:   -0.8373    constr:    0.0000
     atom:    2    charge:   14.0173    magn:    2.4180    constr:    0.0000
     atom:    3    charge:   16.3791    magn:   -0.3114    constr:    0.0000
     atom:    4    charge:   14.0133    magn:   -2.7014    constr:    0.0000
     atom:    5    charge:   16.3792    magn:   -0.3114    constr:    0.0000
     atom:    6    charge:   14.0133    magn:   -2.7014    constr:    0.0000
     atom:    7    charge:   16.3791    magn:   -0.3114    constr:    0.0000
     atom:    8    charge:   14.0133    magn:   -2.7015    constr:    0.0000

     End of self-consistent calculation

     Number of k-points >= 100: set verbosity='high' to print the bands.

     the Fermi energy is    16.5121 ev

!    total energy              =   -2689.80695205 Ry
     estimated scf accuracy    <          7.5E-09 Ry
     smearing contrib. (-TS)   =      -0.00381231 Ry
     internal energy E=F+TS    =   -2689.80313974 Ry

[...]

     convergence has been achieved in 141 iterations

[...]

     Forces acting on atoms (cartesian axes, Ry/au):

     atom    1 type  1   force =    -0.00000006   -0.00000000    0.00000000
     atom    2 type  2   force =     0.00000006    0.00000000    0.00000000
     atom    3 type  1   force =    -0.00000006   -0.00000000    0.00000000
     atom    4 type  2   force =     0.00000005    0.00000000    0.00000000
     atom    5 type  1   force =    -0.00000004    0.00000000    0.00000000
     atom    6 type  2   force =     0.00000007   -0.00000000   -0.00000000
     atom    7 type  1   force =    -0.00000007   -0.00000000    0.00000000
     atom    8 type  2   force =     0.00000005   -0.00000000   -0.00000000

     Total force =     0.000000     Total SCF correction =     0.000000

     Computing stress (Cartesian axis) and pressure

     negative rho (up, down):  1.527E-04 4.070E-05
          total   stress  (Ry/bohr**3)                   (kbar)     P=      129.73
   0.00088190  -0.00000000  -0.00000000          129.73       -0.00       -0.00
  -0.00000000   0.00088188   0.00000000           -0.00      129.73        0.00
  -0.00000000   0.00000000   0.00088192           -0.00        0.00      129.74

     Entering Dynamics;  it =     1   time =  0.00000 pico-seconds

  new lattice vectors (alat unit) :
   1.000066282  -0.000000709  -0.000000055
  -0.000000709   1.000065153   0.000000646
  -0.000000055   0.000000646   1.000066576
  new unit-cell volume =    660.2477 (a.u.)^3
  new positions in cryst coord
Ni      -0.000949801   0.500168714  -0.000426506
Fe       0.500044016  -0.000045921   0.499794102
Ni       0.000206309  -0.000002217   0.500777867
Fe       0.500145462   0.499715624  -0.000480300
Ni       0.500740948  -0.000511802  -0.000541668
Fe      -0.000213112   0.500255976   0.500682605
Ni       0.500002544   0.500345305   0.500190307
Fe       0.000023634   0.000074321   0.000003593
  new positions in cart coord (alat unit)
Ni      -0.000950218   0.500201302  -0.000426211
Fe       0.500077132  -0.000045955   0.499827349
Ni       0.000206295  -0.000001894   0.500811207
Fe       0.500178258   0.499747828  -0.000480037
Ni       0.500774138  -0.000512191  -0.000541732
Fe      -0.000213508   0.500288893   0.500716262
Ni       0.500035303   0.500377873   0.500223904
Fe       0.000023635   0.000074325   0.000003593

     Ekin =     0.01995091 Ry    T =    0.0 K  Etot =    -2689.78699665
     new unit-cell volume =    660.24771 a.u.^3 (    97.83862 Ang^3 )
     density =      7.77586 g/cm^3

CELL_PARAMETERS (angstrom)
   4.607905400  -0.000003265  -0.000000252
  -0.000003265   4.607900200   0.000002976
  -0.000000252   0.000002976   4.607906756

ATOMIC_POSITIONS (angstrom)
Ni           -0.0043782256        2.3047275193       -0.0019638118
Fe            2.3041553952       -0.0002117441        2.3030044929
Ni            0.0009505266       -0.0000087249        2.3075377156
Fe            2.3046213428        2.3026380901       -0.0022118167
Ni            2.3073669182       -0.0023599695       -0.0024960821
Fe           -0.0009837582        2.3051311031        2.3071002491
Ni            2.3039626621        2.3055410863        2.3048316586
Fe            0.0001089026        0.0003424620        0.0000165549

     Writing output data file ./pwscf.save/
     NEW-OLD atomic charge density approx. for the potential

     Check: negative core charge=   -0.000010

     negative rho (up, down):  1.516E-04 4.064E-05
     extrapolated charge  136.02534, renormalised to  136.00000
     Generating pointlists ...

[...]

     Total force =     0.005711     Total SCF correction =     0.000849
     SCF correction compared to forces is large: reduce conv_thr to get better values

[...]

     negative rho (up, down):  1.351E-04 3.938E-05
     extrapolated charge  136.21051, renormalised to  136.00000
     Generating pointlists ...
     new r_m :   0.2039 (alat units)  1.7758 (a.u.) for type    1
     new r_m :   0.2039 (alat units)  1.7758 (a.u.) for type    2

[...]

     iteration #  1     ecut=    90.00 Ry     beta= 0.20
     Davidson diagonalization with overlap
     c_bands:  1 eigenvalues not converged
     c_bands:  2 eigenvalues not converged
     ethr =  1.00E-06,  avg # of iterations =  7.9

[...]

     Writing output data file ./pwscf.save/
     NEW-OLD atomic charge density approx. for the potential

     Check: negative core charge=   -0.000009

     negative rho (up, down):  1.397E-04 2.068E-05
     extrapolated charge  135.66796, renormalised to  136.00000
     Generating pointlists ...

     Self-consistent Calculation

[...]

     total energy              =   -2689.89530331 Ry
     estimated scf accuracy    <       0.00000001 Ry

[...]

     iteration # 47     ecut=    90.00 Ry     beta= 0.20
     Davidson diagonalization with overlap
     ethr =  7.36E-12,  avg # of iterations =  1.0

[...]

     Magnetic moment per site:
     atom:    1    charge:   16.2535    magn:   -0.8722    constr:    0.0000
     atom:    2    charge:   13.9120    magn:    2.5054    constr:    0.0000
     atom:    3    charge:   16.2705    magn:   -0.3427    constr:    0.0000
     atom:    4    charge:   13.8934    magn:   -2.8279    constr:    0.0000
     atom:    5    charge:   16.2423    magn:   -0.3484    constr:    0.0000
     atom:    6    charge:   13.9179    magn:   -2.7697    constr:    0.0000
     atom:    7    charge:   16.2768    magn:   -0.2799    constr:    0.0000
     atom:    8    charge:   13.8934    magn:   -2.8142    constr:    0.0000

     End of self-consistent calculation

     Number of k-points >= 100: set verbosity='high' to print the bands.

     the Fermi energy is    15.7812 ev

!    total energy              =   -2689.89530331 Ry
     estimated scf accuracy    <          7.3E-09 Ry
     smearing contrib. (-TS)   =      -0.00645322 Ry
     internal energy E=F+TS    =   -2689.88885009 Ry

     total magnetization       =    -7.80 Bohr mag/cell
     absolute magnetization    =    13.61 Bohr mag/cell

     convergence has been achieved in  47 iterations

     negative rho (up, down):  1.360E-04 1.832E-05

     Forces acting on atoms (cartesian axes, Ry/au):

     atom    1 type  1   force =    -0.04124061    0.01132971   -0.02122399
     atom    2 type  2   force =    -0.00726397    0.00998075   -0.01755984
     atom    3 type  1   force =    -0.00552642   -0.01223926    0.04366925
     atom    4 type  2   force =    -0.00501526   -0.00564682   -0.00754327
     atom    5 type  1   force =     0.03035259   -0.02255870   -0.02974438
     atom    6 type  2   force =     0.00861645   -0.00251941    0.00611177
     atom    7 type  1   force =     0.01790229    0.02508380    0.01251110
     atom    8 type  2   force =     0.00217491   -0.00343008    0.01377937

     Total force =     0.093204     Total SCF correction =     0.000052

     Computing stress (Cartesian axis) and pressure

     negative rho (up, down):  1.360E-04 1.832E-05
          total   stress  (Ry/bohr**3)                   (kbar)     P=       22.53
   0.00015748   0.00010134   0.00007090           23.17       14.91       10.43
   0.00010134   0.00019185  -0.00000806           14.91       28.22       -1.19
   0.00007090  -0.00000806   0.00011016           10.43       -1.19       16.20

     Entering Dynamics;  it =   102   time =  0.09772 pico-seconds

  new lattice vectors (alat unit) :
   1.010559860   0.012039950   0.004373917
   0.012039950   1.007210129   0.002052816
   0.004373917   0.002052816   1.016025918
  new unit-cell volume =    682.5527 (a.u.)^3
  new positions in cryst coord
Ni      -0.056427043   0.525309621   0.011122110
Fe       0.507297101   0.026962931   0.449199959
Ni       0.003695254   0.006628791   0.552562642
Fe       0.432048208   0.444954342  -0.006864121
Ni       0.554705600  -0.057045799  -0.052491429
Fe       0.000901879   0.504915265   0.499284340
Ni       0.498370410   0.525869630   0.487176761
Fe       0.059391035   0.022366346   0.060092860
  new positions in cart coord (alat unit)
Ni      -0.050649556   0.528440624   0.012131909
Fe       0.514943484   0.034187294   0.458673026
Ni       0.006230949   0.007855385   0.561447736
Fe       0.441937782   0.453350269  -0.004170972
Ni       0.559646792  -0.050886234  -0.051023520
Fe       0.009174386   0.509591567   0.508326273
Ni       0.512095447   0.536661657   0.498243561
Fe       0.060550327   0.023366035   0.061361589

     Ekin =     0.03488763 Ry    T =  368.8 K  Etot =    -2689.86041103
     new unit-cell volume =    682.55268 a.u.^3 (   101.14387 Ang^3 )
     density =      7.52175 g/cm^3

CELL_PARAMETERS (angstrom)
   4.656255613   0.055475276   0.020153262
   0.055475276   4.640821391   0.009458556
   0.020153262   0.009458556   4.681441020

ATOMIC_POSITIONS (angstrom)
Ni           -0.2333728919        2.4348430198        0.0558989837
Fe            2.3726535948        0.1575213761        2.1133818364
Ni            0.0287097201        0.0361944737        2.5869265899
Fe            2.0362725254        2.0888566984       -0.0192181729
Ni            2.5786285591       -0.2344634130       -0.2350959722
Fe            0.0422719001        2.3479941051        2.3421641357
Ni            2.3595309836        2.4727222515        2.2957070310
Fe            0.2789916879        0.1076613422        0.2827296559

     Maximum number of iterations reached, stopping

     General routines

     Parallel routines

   This run was terminated on:  21: 9:27  10Feb2022

   JOB DONE.
Note: The following floating-point exceptions are signalling: IEEE_INVALID_FLAG IEEE_UNDERFLOW_FLAG IEEE_DENORMAL
Note: The following floating-point exceptions are signalling: IEEE_UNDERFLOW_FLAG IEEE_DENORMAL
Note: The following floating-point exceptions are signalling: IEEE_UNDERFLOW_FLAG IEEE_DENORMAL
Note: The following floating-point exceptions are signalling: IEEE_UNDERFLOW_FLAG IEEE_DENORMAL
Note: The following floating-point exceptions are signalling: IEEE_INVALID_FLAG IEEE_UNDERFLOW_FLAG IEEE_DENORMAL
Note: The following floating-point exceptions are signalling: IEEE_UNDERFLOW_FLAG IEEE_DENORMAL
Note: The following floating-point exceptions are signalling: IEEE_UNDERFLOW_FLAG IEEE_DENORMAL
Note: The following floating-point exceptions are signalling: IEEE_UNDERFLOW_FLAG IEEE_DENORMAL
Note: The following floating-point exceptions are signalling: IEEE_UNDERFLOW_FLAG IEEE_DENORMAL
Note: The following floating-point exceptions are signalling: IEEE_UNDERFLOW_FLAG IEEE_DENORMAL
Note: The following floating-point exceptions are signalling: IEEE_INVALID_FLAG IEEE_UNDERFLOW_FLAG IEEE_DENORMAL
Note: The following floating-point exceptions are signalling: IEEE_UNDERFLOW_FLAG IEEE_DENORMAL
Note: The following floating-point exceptions are signalling: IEEE_UNDERFLOW_FLAG IEEE_DENORMAL
Note: The following floating-point exceptions are signalling: IEEE_UNDERFLOW_FLAG IEEE_DENORMAL
Note: The following floating-point exceptions are signalling: IEEE_UNDERFLOW_FLAG IEEE_DENORMAL
Note: The following floating-point exceptions are signalling: IEEE_UNDERFLOW_FLAG IEEE_DENORMAL
Note: The following floating-point exceptions are signalling: IEEE_UNDERFLOW_FLAG IEEE_DENORMAL
Note: The following floating-point exceptions are signalling: IEEE_UNDERFLOW_FLAG IEEE_DENORMAL
Note: The following floating-point exceptions are signalling: IEEE_INVALID_FLAG IEEE_UNDERFLOW_FLAG IEEE_DENORMAL
Note: The following floating-point exceptions are signalling: IEEE_UNDERFLOW_FLAG IEEE_DENORMAL
Note: The following floating-point exceptions are signalling: IEEE_UNDERFLOW_FLAG IEEE_DENORMAL
Note: The following floating-point exceptions are signalling: IEEE_UNDERFLOW_FLAG IEEE_DENORMAL
Note: The following floating-point exceptions are signalling: IEEE_UNDERFLOW_FLAG IEEE_DENORMAL
Note: The following floating-point exceptions are signalling: IEEE_UNDERFLOW_FLAG IEEE_DENORMAL